
#######################################################################
#
#                 Cambridge Crystallographic Data Centre
#                                CCDC
#
#######################################################################
#
# If this CIF has been generated from an entry in the Cambridge
# Structural Database, then it will include bibliographic, chemical,
# crystal, experimental, refinement or atomic coordinate data resulting
# from the CCDC's data processing and validation procedures.
#
#######################################################################

data_CSD_CIF_ISIDET
_audit_creation_date 2004-06-16
_audit_creation_method CSD-ConQuest-V1
_database_code_CSD ISIDET
_database_code_depnum_ccdc_archive 'CCDC 206571'
_chemical_formula_sum 'C12 H20 B1 K1 N4 O2 S8'
_chemical_formula_moiety
;
K1 1+,C12 H16 B1 N4 S8 1-,2(H2 O1)
;
_journal_coden_Cambridge 580
_journal_volume 23
_journal_year 2004
_journal_page_first 205
_journal_name_full 'Polyhedron '
loop_
_publ_author_name
"L.F.Soares"
"D.C.Menezes"
"R.M.Silva"
"A.C.Doriguetto"
"J.Ellena"
"Y.P.Mascarenhas"
"E.E.Castellano"
_chemical_name_systematic
;
Potassium tetrakis(2-mercaptothiazolyl)borate dihydrate
;
_cell_volume  27081.622
_exptl_crystal_colour 'white'
_exptl_crystal_density_diffrn 1.633
_exptl_crystal_description 'cubic'
_exptl_crystal_preparation 'tetrahydrofuran'
_diffrn_ambient_temperature 120
#These two values have been output from a single CSD field.
_refine_ls_R_factor_gt 0.0331
_refine_ls_wR_factor_gt 0.0331
_symmetry_cell_setting cubic
_symmetry_space_group_name_H-M 'F -4 3 c'
_symmetry_Int_Tables_number 219
loop_
_symmetry_equiv_pos_site_id
_symmetry_equiv_pos_as_xyz
1 x,y,z
2 y,-x,1/2-z
3 x,-y,-z
4 z,x,y
5 -x,-y,z
6 -y,-x,1/2+z
7 x,-z,1/2-y
8 -y,x,1/2-z
9 -x,y,-z
10 -z,-x,y
11 y,x,1/2+z
12 -x,z,1/2-y
13 z,-x,-y
14 x,z,1/2+y
15 -z,x,-y
16 -x,-z,1/2+y
17 y,z,x
18 1/2+z,-y,-x
19 1/2-z,-y,x
20 y,-z,-x
21 1/2+z,y,x
22 -y,z,-x
23 -y,-z,x
24 1/2-z,y,-x
25 x,1/2+y,1/2+z
26 y,1/2-x,-z
27 x,1/2-y,1/2-z
28 z,1/2+x,1/2+y
29 -x,1/2-y,1/2+z
30 -y,1/2-x,z
31 x,1/2-z,-y
32 -y,1/2+x,-z
33 -x,1/2+y,1/2-z
34 -z,1/2-x,1/2+y
35 y,1/2+x,z
36 -x,1/2+z,-y
37 z,1/2-x,1/2-y
38 x,1/2+z,y
39 -z,1/2+x,1/2-y
40 -x,1/2-z,y
41 y,1/2+z,1/2+x
42 1/2+z,1/2-y,1/2-x
43 1/2-z,1/2-y,1/2+x
44 y,1/2-z,1/2-x
45 1/2+z,1/2+y,1/2+x
46 -y,1/2+z,1/2-x
47 -y,1/2-z,1/2+x
48 1/2-z,1/2+y,1/2-x
49 1/2+x,y,1/2+z
50 1/2+y,-x,-z
51 1/2+x,-y,1/2-z
52 1/2+z,x,1/2+y
53 1/2-x,-y,1/2+z
54 1/2-y,-x,z
55 1/2+x,-z,-y
56 1/2-y,x,-z
57 1/2-x,y,1/2-z
58 1/2-z,-x,1/2+y
59 1/2+y,x,z
60 1/2-x,z,-y
61 1/2+z,-x,1/2-y
62 1/2+x,z,y
63 1/2-z,x,1/2-y
64 1/2-x,-z,y
65 1/2+y,z,1/2+x
66 z,-y,1/2-x
67 -z,-y,1/2+x
68 1/2+y,-z,1/2-x
69 z,y,1/2+x
70 1/2-y,z,1/2-x
71 1/2-y,-z,1/2+x
72 -z,y,1/2-x
73 1/2+x,1/2+y,z
74 1/2+y,1/2-x,1/2-z
75 1/2+x,1/2-y,-z
76 1/2+z,1/2+x,y
77 1/2-x,1/2-y,z
78 1/2-y,1/2-x,1/2+z
79 1/2+x,1/2-z,1/2-y
80 1/2-y,1/2+x,1/2-z
81 1/2-x,1/2+y,-z
82 1/2-z,1/2-x,y
83 1/2+y,1/2+x,1/2+z
84 1/2-x,1/2+z,1/2-y
85 1/2+z,1/2-x,-y
86 1/2+x,1/2+z,1/2+y
87 1/2-z,1/2+x,-y
88 1/2-x,1/2-z,1/2+y
89 1/2+y,1/2+z,x
90 z,1/2-y,-x
91 -z,1/2-y,x
92 1/2+y,1/2-z,-x
93 z,1/2+y,x
94 1/2-y,1/2+z,-x
95 1/2-y,1/2-z,x
96 -z,1/2+y,-x
_cell_length_a 30.0302(8)
_cell_length_b 30.0302(8)
_cell_length_c 30.0302(8)
_cell_angle_alpha 90
_cell_angle_beta 90
_cell_angle_gamma 90
_cell_formula_units_Z 48
loop_
_atom_type_symbol
_atom_type_radius_bond
C 0.68
H 0.23
B 0.83
K 1.33
N 0.68
O 0.68
S 1.02
loop_
_atom_site_label
_atom_site_type_symbol
_atom_site_fract_x
_atom_site_fract_y
_atom_site_fract_z
K1 K 0.6963(1) 0.6963(1) 0.8037(1)
S1 S 0.7079(1) 0.6935(1) 0.9156(1)
S2 S 0.6626(1) 0.7791(1) 0.8990(1)
N1 N 0.7118(1) 0.7671(1) 0.9688(1)
C1 C 0.6979(1) 0.7458(1) 0.9320(1)
C2 C 0.6762(1) 0.8291(1) 0.9299(1)
C3 C 0.6909(1) 0.8112(1) 0.9750(1)
B1 B 0.75000 0.75000 1.00000
H1 H 0.70050 0.84590 0.91530
H2 H 0.64990 0.84870 0.93290
H3 H 0.71240 0.83200 0.98890
H4 H 0.66480 0.80850 0.99500
O1 O 0.75000 0.6662(2) 0.75000
O2 O 0.7907(2) 0.7093(2) 0.7907(2)
K2 K 0.4464(1) 0.5536(1) 0.9464(1)
S3 S 0.4427(1) 0.5402(1) 0.8345(1)
S4 S 0.5256(1) 0.5904(1) 0.8496(1)
N2 N 0.5164(1) 0.5382(1) 0.7812(1)
C4 C 0.4943(1) 0.5523(1) 0.8172(1)
C5 C 0.5764(1) 0.5785(1) 0.8198(1)
C6 C 0.5602(1) 0.5600(1) 0.7752(1)
B2 B 0.50000 0.50000 0.75000
H5 H 0.59430 0.60580 0.81550
H6 H 0.59460 0.55620 0.83590
H7 H 0.55750 0.58460 0.75330
H8 H 0.58200 0.53820 0.76360
O3 O 0.50000 0.50000 0.9160(2)
O4 O 0.4581(2) 0.4581(2) 0.9581(2)
N1CB N 0.7329(1) 0.7118(1) 1.0312(1)
C1CB C 0.7542(1) 0.6979(1) 1.0680(1)
S1CB S 0.8065(1) 0.7079(1) 1.0844(1)
S2CB S 0.7209(1) 0.6626(1) 1.1010(1)
C2CB C 0.6709(1) 0.6762(1) 1.0701(1)
C3CB C 0.6888(1) 0.6909(1) 1.0250(1)
H3CB H 0.66800 0.71240 1.01110
H4CB H 0.69150 0.66480 1.00500
H1CB H 0.65410 0.70050 1.08470
H2CB H 0.65130 0.64990 1.06710
N1Y N 0.7671(1) 0.7882(1) 1.0312(1)
C1Y C 0.7458(1) 0.8021(1) 1.0680(1)
S1Y S 0.6935(1) 0.7921(1) 1.0844(1)
S2Y S 0.7791(1) 0.8374(1) 1.1010(1)
C2Y C 0.8291(1) 0.8238(1) 1.0701(1)
C3Y C 0.8112(1) 0.8091(1) 1.0250(1)
H3Y H 0.83200 0.78760 1.01110
H4Y H 0.80850 0.83520 1.00500
H1Y H 0.84590 0.79950 1.08470
H2Y H 0.84870 0.85010 1.06710
N1XB N 0.7882(1) 0.7329(1) 0.9688(1)
C1XB C 0.8021(1) 0.7542(1) 0.9320(1)
S1XB S 0.7921(1) 0.8065(1) 0.9156(1)
S2XB S 0.8374(1) 0.7209(1) 0.8990(1)
C2XB C 0.8238(1) 0.6709(1) 0.9299(1)
C3XB C 0.8091(1) 0.6888(1) 0.9750(1)
H3XB H 0.78760 0.66800 0.98890
H4XB H 0.83520 0.69150 0.99500
H1XB H 0.79950 0.65410 0.91530
H2XB H 0.85010 0.65130 0.93290
N2G N 0.4618(1) 0.5164(1) 0.7188(1)
C4G C 0.4477(1) 0.4943(1) 0.6828(1)
S3G S 0.4598(1) 0.4427(1) 0.6655(1)
S4G S 0.4096(1) 0.5256(1) 0.6504(1)
C5G C 0.4215(1) 0.5764(1) 0.6802(1)
C6G C 0.4400(1) 0.5602(1) 0.7248(1)
H7G H 0.41540 0.55750 0.74670
H8G H 0.46180 0.58200 0.73640
H5G H 0.39420 0.59430 0.68450
H6G H 0.44380 0.59460 0.66410
N2D N 0.4836(1) 0.4618(1) 0.7812(1)
C4D C 0.5057(1) 0.4477(1) 0.8172(1)
S3D S 0.5573(1) 0.4598(1) 0.8345(1)
S4D S 0.4744(1) 0.4096(1) 0.8496(1)
C5D C 0.4236(1) 0.4215(1) 0.8198(1)
C6D C 0.4398(1) 0.4400(1) 0.7752(1)
H7D H 0.44250 0.41540 0.75330
H8D H 0.41800 0.46180 0.76360
H5D H 0.40570 0.39420 0.81550
H6D H 0.40540 0.44380 0.83590
N2A N 0.5382(1) 0.4836(1) 0.7188(1)
C4A C 0.5523(1) 0.5057(1) 0.6828(1)
S3A S 0.5402(1) 0.5573(1) 0.6655(1)
S4A S 0.5904(1) 0.4744(1) 0.6504(1)
C5A C 0.5785(1) 0.4236(1) 0.6802(1)
C6A C 0.5600(1) 0.4398(1) 0.7248(1)
H7A H 0.58460 0.44250 0.74670
H8A H 0.53820 0.41800 0.73640
H5A H 0.60580 0.40570 0.68450
H6A H 0.55620 0.40540 0.66410
#END

data_CSD_CIF_KEHVEA
_audit_creation_date 2012-09-26
_audit_creation_method CSD-ConQuest-V1
_database_code_CSD KEHVEA
_database_code_depnum_ccdc_archive 'CCDC 847687'
_chemical_formula_sum 'C84 H93.44 Ni8 O118.7 P16 U12'
_chemical_formula_moiety
;
4(H3 O1 1+),C84 H76 Ni8 O112 P16 U12 4-,2.72(H2 O1)
;
_journal_coden_Cambridge 9
_journal_volume 51
_journal_year 2012
_journal_page_first 4885
_journal_name_full 'Inorg.Chem. '
loop_
_publ_author_name
"P.O.Adelani"
"A.G.Oliver"
"T.E.Albrecht-Schmitt"
_chemical_name_systematic
;
tetrakis(Oxonium) 
dodecakis(\m~5~-2-phosphonatobenzoato)-tetrakis(\m~3~-hydrogen 
phosphato)-dodeca-aqua-tetracosa-oxo-octa-nickel(ii)-dodeca-uranium(vi) 
hydrate
;
_cell_volume  48149.090
_exptl_crystal_colour 'green'
_exptl_crystal_description 'tablet'
_diffrn_ambient_temperature 100
#These two values have been output from a single CSD field.
_refine_ls_R_factor_gt 0.0344
_refine_ls_wR_factor_gt 0.0344
_symmetry_cell_setting cubic
_symmetry_space_group_name_H-M 'F -4 3 c'
_symmetry_Int_Tables_number 219
loop_
_symmetry_equiv_pos_site_id
_symmetry_equiv_pos_as_xyz
1 x,y,z
2 -x,-y,z
3 -x,y,-z
4 x,-y,-z
5 z,x,y
6 z,-x,-y
7 -z,-x,y
8 -z,x,-y
9 y,z,x
10 -y,z,-x
11 y,-z,-x
12 -y,-z,x
13 1/2+y,1/2+x,1/2+z
14 1/2-y,1/2-x,1/2+z
15 1/2+y,1/2-x,1/2-z
16 1/2-y,1/2+x,1/2-z
17 1/2+x,1/2+z,1/2+y
18 1/2-x,1/2+z,1/2-y
19 1/2-x,1/2-z,1/2+y
20 1/2+x,1/2-z,1/2-y
21 1/2+z,1/2+y,1/2+x
22 1/2+z,1/2-y,1/2-x
23 1/2-z,1/2+y,1/2-x
24 1/2-z,1/2-y,1/2+x
25 x,1/2+y,1/2+z
26 -x,1/2-y,1/2+z
27 -x,1/2+y,1/2-z
28 x,1/2-y,1/2-z
29 z,1/2+x,1/2+y
30 z,1/2-x,1/2-y
31 -z,1/2-x,1/2+y
32 -z,1/2+x,1/2-y
33 y,1/2+z,1/2+x
34 -y,1/2+z,1/2-x
35 y,1/2-z,1/2-x
36 -y,1/2-z,1/2+x
37 1/2+y,x,z
38 1/2-y,-x,z
39 1/2+y,-x,-z
40 1/2-y,x,-z
41 1/2+x,z,y
42 1/2-x,z,-y
43 1/2-x,-z,y
44 1/2+x,-z,-y
45 1/2+z,y,x
46 1/2+z,-y,-x
47 1/2-z,y,-x
48 1/2-z,-y,x
49 1/2+x,y,1/2+z
50 1/2-x,-y,1/2+z
51 1/2-x,y,1/2-z
52 1/2+x,-y,1/2-z
53 1/2+z,x,1/2+y
54 1/2+z,-x,1/2-y
55 1/2-z,-x,1/2+y
56 1/2-z,x,1/2-y
57 1/2+y,z,1/2+x
58 1/2-y,z,1/2-x
59 1/2+y,-z,1/2-x
60 1/2-y,-z,1/2+x
61 y,1/2+x,z
62 -y,1/2-x,z
63 y,1/2-x,-z
64 -y,1/2+x,-z
65 x,1/2+z,y
66 -x,1/2+z,-y
67 -x,1/2-z,y
68 x,1/2-z,-y
69 z,1/2+y,x
70 z,1/2-y,-x
71 -z,1/2+y,-x
72 -z,1/2-y,x
73 1/2+x,1/2+y,z
74 1/2-x,1/2-y,z
75 1/2-x,1/2+y,-z
76 1/2+x,1/2-y,-z
77 1/2+z,1/2+x,y
78 1/2+z,1/2-x,-y
79 1/2-z,1/2-x,y
80 1/2-z,1/2+x,-y
81 1/2+y,1/2+z,x
82 1/2-y,1/2+z,-x
83 1/2+y,1/2-z,-x
84 1/2-y,1/2-z,x
85 y,x,1/2+z
86 -y,-x,1/2+z
87 y,-x,1/2-z
88 -y,x,1/2-z
89 x,z,1/2+y
90 -x,z,1/2-y
91 -x,-z,1/2+y
92 x,-z,1/2-y
93 z,y,1/2+x
94 z,-y,1/2-x
95 -z,y,1/2-x
96 -z,-y,1/2+x
_cell_length_a 36.380(3)
_cell_length_b 36.380(3)
_cell_length_c 36.380(3)
_cell_angle_alpha 90
_cell_angle_beta 90
_cell_angle_gamma 90
_cell_formula_units_Z 8
loop_
_atom_type_symbol
_atom_type_radius_bond
C 0.68
H 0.23
Ni 1.24
O 0.68
P 1.05
U 1.47
loop_
_atom_site_label
_atom_site_type_symbol
_atom_site_fract_x
_atom_site_fract_y
_atom_site_fract_z
U1 U 0.380105(9) 0.506119(9) 0.054730(9)
Ni1 Ni 0.40196(3) 0.40196(3) 0.09804(3)
Ni2 Ni 0.33911(3) 0.33911(3) 0.16089(3)
P1 P 0.36466(6) 0.42662(6) 0.02415(7)
P2 P 0.40673(6) 0.59327(6) 0.09327(6)
O1 O 0.33257(16) 0.50469(19) 0.06598(17)
O2 O 0.42702(16) 0.50595(19) 0.04321(18)
O3 O 0.38197(16) 0.43903(16) 0.06085(16)
O4 O 0.36538(15) 0.46326(16) 0.00147(17)
O5 O 0.39532(16) 0.49520(15) 0.11567(17)
O6 O 0.3819(2) 0.56580(17) 0.07596(19)
O7 O 0.3812(3) 0.6188(3) 0.1188(3)
O8 O 0.36142(17) 0.36906(17) 0.07705(16)
O9 O 0.31463(18) 0.3639(2) 0.1165(2)
O10 O 0.3111(3) 0.2899(3) 0.1429(3)
O11 O 0.50000 0.50000 0.00000
O12 O 0.3709(5) 0.3059(4) 0.0375(5)
C1 C 0.2422(3) 0.4055(4) 0.0392(4)
H1 H 0.21700 0.40220 0.04230
C2 C 0.2657(3) 0.3888(3) 0.0637(3)
H2 H 0.25660 0.37500 0.08320
C3 C 0.2911(3) 0.4318(3) 0.0063(3)
H3 H 0.29960 0.44630 -0.01300
C4 C 0.3030(3) 0.3929(3) 0.0590(3)
C5 C 0.3289(3) 0.3741(3) 0.0863(3)
C6 C 0.3168(3) 0.4156(2) 0.0309(3)
C7 C 0.2541(3) 0.4265(3) 0.0107(3)
H4 H 0.23740 0.43710 -0.00550
U1HA U 0.506119(9) 0.445270(9) 0.119895(9)
U1GA U 0.493881(9) 0.554730(9) 0.119895(9)
U1AB U 0.554730(9) 0.619895(9) -0.006119(9)
U1BB U 0.445270(9) 0.619895(9) 0.006119(9)
U1C U 0.380105(9) 0.493881(9) -0.054730(9)
U1FA U 0.506119(9) 0.554730(9) -0.119895(9)
U1IA U 0.493881(9) 0.445270(9) -0.119895(9)
U1ZA U 0.554730(9) 0.380105(9) 0.006119(9)
U1CB U 0.445270(9) 0.380105(9) -0.006119(9)
U1B U 0.619895(9) 0.506119(9) -0.054730(9)
U1A U 0.619895(9) 0.493881(9) 0.054730(9)
Ni1A Ni 0.59804(3) 0.59804(3) 0.09804(3)
Ni1C Ni 0.40196(3) 0.59804(3) -0.09804(3)
Ni1B Ni 0.59804(3) 0.40196(3) -0.09804(3)
Ni2C Ni 0.33911(3) 0.66089(3) -0.16089(3)
Ni2A Ni 0.66089(3) 0.66089(3) 0.16089(3)
Ni2B Ni 0.66089(3) 0.33911(3) -0.16089(3)
P1FA P 0.42662(6) 0.52415(6) -0.13534(7)
P1CB P 0.47585(6) 0.36466(6) 0.07338(7)
P1BB P 0.47585(6) 0.63534(6) -0.07338(7)
P1C P 0.36466(6) 0.57338(6) -0.02415(7)
P1HA P 0.42662(6) 0.47585(6) 0.13534(7)
P1B P 0.63534(6) 0.42662(6) -0.02415(7)
P1A P 0.63534(6) 0.57338(6) 0.02415(7)
P1GA P 0.57338(6) 0.52415(6) 0.13534(7)
P1IA P 0.57338(6) 0.47585(6) -0.13534(7)
P1ZA P 0.52415(6) 0.36466(6) -0.07338(7)
P1AB P 0.52415(6) 0.63534(6) 0.07338(7)
P2C P 0.40673(6) 0.40673(6) -0.09327(6)
P2A P 0.59327(6) 0.40673(6) 0.09327(6)
P2B P 0.59327(6) 0.59327(6) -0.09327(6)
O1HA O 0.50469(16) 0.43402(19) 0.16743(17)
O1GA O 0.49531(16) 0.56598(19) 0.16743(17)
O1AB O 0.56598(16) 0.66743(19) -0.00469(17)
O1BB O 0.43402(16) 0.66743(19) 0.00469(17)
O1C O 0.33257(16) 0.49531(19) -0.06598(17)
O1FA O 0.50469(16) 0.56598(19) -0.16743(17)
O1IA O 0.49531(16) 0.43402(19) -0.16743(17)
O1ZA O 0.56598(16) 0.33257(19) 0.00469(17)
O1CB O 0.43402(16) 0.33257(19) -0.00469(17)
O1B O 0.66743(16) 0.50469(19) -0.06598(17)
O1A O 0.66743(16) 0.49531(19) 0.06598(17)
O2HA O 0.50595(16) 0.45679(19) 0.07298(18)
O2GA O 0.49405(16) 0.54321(19) 0.07298(18)
O2AB O 0.54321(16) 0.57298(19) -0.00595(18)
O2BB O 0.45679(16) 0.57298(19) 0.00595(18)
O2C O 0.42702(16) 0.49405(19) -0.04321(18)
O2FA O 0.50595(16) 0.54321(19) -0.07298(18)
O2IA O 0.49405(16) 0.45679(19) -0.07298(18)
O2ZA O 0.54321(16) 0.42702(19) 0.00595(18)
O2CB O 0.45679(16) 0.42702(19) -0.00595(18)
O2B O 0.57298(16) 0.50595(19) -0.04321(18)
O2A O 0.57298(16) 0.49405(19) 0.04321(18)
O3HA O 0.43903(16) 0.43915(16) 0.11803(16)
O3GA O 0.56097(16) 0.56085(16) 0.11803(16)
O3AB O 0.56085(16) 0.61803(16) 0.06097(16)
O3BB O 0.43915(16) 0.61803(16) -0.06097(16)
O3C O 0.38197(16) 0.56097(16) -0.06085(16)
O3FA O 0.43903(16) 0.56085(16) -0.11803(16)
O3IA O 0.56097(16) 0.43915(16) -0.11803(16)
O3ZA O 0.56085(16) 0.38197(16) -0.06097(16)
O3CB O 0.43915(16) 0.38197(16) 0.06097(16)
O3B O 0.61803(16) 0.43903(16) -0.06085(16)
O3A O 0.61803(16) 0.56097(16) 0.06085(16)
O4HA O 0.46326(15) 0.49853(16) 0.13462(17)
O4AB O 0.50147(15) 0.63462(16) 0.03674(17)
O4C O 0.36538(15) 0.53674(16) -0.00147(17)
O4FA O 0.46326(15) 0.50147(16) -0.13462(17)
O4ZA O 0.50147(15) 0.36538(16) -0.03674(17)
O4CB O 0.49853(15) 0.36538(16) 0.03674(17)
O4IA O 0.53674(15) 0.49853(16) -0.13462(17)
O4BB O 0.49853(15) 0.63462(16) -0.03674(17)
O4GA O 0.53674(15) 0.50147(16) 0.13462(17)
O4B O 0.63462(15) 0.46326(16) -0.00147(17)
O4A O 0.63462(15) 0.53674(16) 0.00147(17)
O5C O 0.39532(16) 0.50480(15) -0.11567(17)
O5CB O 0.38433(16) 0.39532(15) 0.00480(17)
O5FA O 0.49520(16) 0.61567(15) -0.10468(17)
O5BB O 0.38433(16) 0.60468(15) -0.00480(17)
O5HA O 0.49520(16) 0.38433(15) 0.10468(17)
O5ZA O 0.61567(16) 0.39532(15) -0.00480(17)
O5A O 0.60468(16) 0.50480(15) 0.11567(17)
O5B O 0.60468(16) 0.49520(15) -0.11567(17)
O5IA O 0.50480(16) 0.38433(15) -0.10468(17)
O5AB O 0.61567(16) 0.60468(15) 0.00480(17)
O5GA O 0.50480(16) 0.61567(15) 0.10468(17)
O6CB O 0.42404(20) 0.38190(17) -0.06580(19)
O6C O 0.3819(2) 0.43420(17) -0.07596(19)
O6IA O 0.4342(2) 0.42404(17) -0.11810(19)
O6BB O 0.42404(20) 0.61810(17) 0.06580(19)
O6GA O 0.4342(2) 0.57596(17) 0.11810(19)
O6HA O 0.5658(2) 0.42404(17) 0.11810(19)
O6ZA O 0.57596(20) 0.38190(17) 0.06580(19)
O6A O 0.6181(2) 0.43420(17) 0.07596(19)
O6B O 0.6181(2) 0.56580(17) -0.07596(19)
O6FA O 0.5658(2) 0.57596(17) -0.11810(19)
O6AB O 0.57596(20) 0.61810(17) -0.06580(19)
O7A O 0.6188(3) 0.3812(3) 0.1188(3)
O7B O 0.6188(3) 0.6188(3) -0.1188(3)
O7C O 0.3812(3) 0.3812(3) -0.1188(3)
O8HA O 0.36906(17) 0.42295(17) 0.13858(16)
O8CB O 0.42295(17) 0.36142(17) 0.13094(16)
O8C O 0.36142(17) 0.63094(17) -0.07705(16)
O8BB O 0.42295(17) 0.63858(17) -0.13094(16)
O8FA O 0.36906(17) 0.57705(17) -0.13858(16)
O8GA O 0.63094(17) 0.57705(17) 0.13858(16)
O8AB O 0.57705(17) 0.63858(17) 0.13094(16)
O8A O 0.63858(17) 0.63094(17) 0.07705(16)
O8IA O 0.63094(17) 0.42295(17) -0.13858(16)
O8ZA O 0.57705(17) 0.36142(17) -0.13094(16)
O8B O 0.63858(17) 0.36906(17) -0.07705(16)
O9HA O 0.36390(18) 0.3835(2) 0.18537(20)
O9CB O 0.38350(18) 0.31463(20) 0.1361(2)
O9BB O 0.38350(18) 0.68537(20) -0.1361(2)
O9C O 0.31463(18) 0.6361(2) -0.1165(2)
O9FA O 0.36390(18) 0.6165(2) -0.18537(20)
O9GA O 0.63610(18) 0.6165(2) 0.18537(20)
O9AB O 0.61650(18) 0.68537(20) 0.1361(2)
O9A O 0.68537(18) 0.6361(2) 0.1165(2)
O9ZA O 0.61650(18) 0.31463(20) -0.1361(2)
O9B O 0.68537(18) 0.3639(2) -0.1165(2)
O9IA O 0.63610(18) 0.3835(2) -0.18537(20)
O10HA O 0.2899(3) 0.3571(3) 0.1889(3)
O10CB O 0.3571(3) 0.3111(3) 0.2101(3)
O10BB O 0.3571(3) 0.6889(3) -0.2101(3)
O10C O 0.3111(3) 0.7101(3) -0.1429(3)
O10FA O 0.2899(3) 0.6429(3) -0.1889(3)
O10GA O 0.7101(3) 0.6429(3) 0.1889(3)
O10AB O 0.6429(3) 0.6889(3) 0.2101(3)
O10A O 0.6889(3) 0.7101(3) 0.1429(3)
O10ZA O 0.6429(3) 0.3111(3) -0.2101(3)
O10B O 0.6889(3) 0.2899(3) -0.1429(3)
O10IA O 0.7101(3) 0.3571(3) -0.1889(3)
C1CB C 0.4608(3) 0.2422(4) 0.0945(4)
C1C C 0.2422(3) 0.5945(4) -0.0392(4)
C1FA C 0.4055(3) 0.5392(4) -0.2578(4)
C1BB C 0.4608(3) 0.7578(4) -0.0945(4)
C1HA C 0.4055(3) 0.4608(4) 0.2578(4)
C1A C 0.7578(3) 0.5945(4) 0.0392(4)
C1GA C 0.5945(3) 0.5392(4) 0.2578(4)
C1IA C 0.5945(3) 0.4608(4) -0.2578(4)
C1B C 0.7578(3) 0.4055(4) -0.0392(4)
C1ZA C 0.5392(3) 0.2422(4) -0.0945(4)
C1AB C 0.5392(3) 0.7578(4) 0.0945(4)
H1CB H 0.45770 0.21700 0.09780
H1C H 0.21700 0.59780 -0.04230
H1FA H 0.40220 0.54230 -0.28300
H1BB H 0.45770 0.78300 -0.09780
H1HA H 0.40220 0.45770 0.28300
H1A H 0.78300 0.59780 0.04230
H1GA H 0.59780 0.54230 0.28300
H1IA H 0.59780 0.45770 -0.28300
H1B H 0.78300 0.40220 -0.04230
H1ZA H 0.54230 0.21700 -0.09780
H1AB H 0.54230 0.78300 0.09780
C2CB C 0.4363(3) 0.2657(3) 0.1112(3)
C2C C 0.2657(3) 0.6112(3) -0.0637(3)
C2FA C 0.3888(3) 0.5637(3) -0.2343(3)
C2BB C 0.4363(3) 0.7343(3) -0.1112(3)
C2HA C 0.3888(3) 0.4363(3) 0.2343(3)
C2A C 0.7343(3) 0.6112(3) 0.0637(3)
C2GA C 0.6112(3) 0.5637(3) 0.2343(3)
C2IA C 0.6112(3) 0.4363(3) -0.2343(3)
C2B C 0.7343(3) 0.3888(3) -0.0637(3)
C2ZA C 0.5637(3) 0.2657(3) -0.1112(3)
C2AB C 0.5637(3) 0.7343(3) 0.1112(3)
H2C H 0.25660 0.62500 -0.08320
H2FA H 0.37500 0.58320 -0.24340
H2BB H 0.41680 0.74340 -0.12500
H2HA H 0.37500 0.41680 0.24340
H2GA H 0.62500 0.58320 0.24340
H2IA H 0.62500 0.41680 -0.24340
H2B H 0.74340 0.37500 -0.08320
H2ZA H 0.58320 0.25660 -0.12500
H2A H 0.74340 0.62500 0.08320
H2AB H 0.58320 0.74340 0.12500
H2CB H 0.41680 0.25660 0.12500
C3CB C 0.4937(3) 0.2911(3) 0.0682(3)
C3C C 0.2911(3) 0.5682(3) -0.0063(3)
C3FA C 0.4318(3) 0.5063(3) -0.2089(3)
C3BB C 0.4937(3) 0.7089(3) -0.0682(3)
C3HA C 0.4318(3) 0.4937(3) 0.2089(3)
C3A C 0.7089(3) 0.5682(3) 0.0063(3)
C3GA C 0.5682(3) 0.5063(3) 0.2089(3)
C3IA C 0.5682(3) 0.4937(3) -0.2089(3)
C3B C 0.7089(3) 0.4318(3) -0.0063(3)
C3ZA C 0.5063(3) 0.2911(3) -0.0682(3)
C3AB C 0.5063(3) 0.7089(3) 0.0682(3)
H3CB H 0.51300 0.29960 0.05370
H3C H 0.29960 0.55370 0.01300
H3FA H 0.44630 0.48700 -0.20040
H3BB H 0.51300 0.70040 -0.05370
H3HA H 0.44630 0.51300 0.20040
H3A H 0.70040 0.55370 -0.01300
H3GA H 0.55370 0.48700 0.20040
H3IA H 0.55370 0.51300 -0.20040
H3B H 0.70040 0.44630 0.01300
H3ZA H 0.48700 0.29960 -0.05370
H3AB H 0.48700 0.70040 0.05370
C4CB C 0.4410(3) 0.3030(3) 0.1071(3)
C4C C 0.3030(3) 0.6071(3) -0.0590(3)
C4FA C 0.3929(3) 0.5590(3) -0.1970(3)
C4BB C 0.4410(3) 0.6970(3) -0.1071(3)
C4HA C 0.3929(3) 0.4410(3) 0.1970(3)
C4A C 0.6970(3) 0.6071(3) 0.0590(3)
C4GA C 0.6071(3) 0.5590(3) 0.1970(3)
C4IA C 0.6071(3) 0.4410(3) -0.1970(3)
C4B C 0.6970(3) 0.3929(3) -0.0590(3)
C4ZA C 0.5590(3) 0.3030(3) -0.1071(3)
C4AB C 0.5590(3) 0.6970(3) 0.1071(3)
C5HA C 0.3741(3) 0.4137(3) 0.1711(3)
C5CB C 0.4137(3) 0.3289(3) 0.1259(3)
C5C C 0.3289(3) 0.6259(3) -0.0863(3)
C5BB C 0.4137(3) 0.6711(3) -0.1259(3)
C5FA C 0.3741(3) 0.5863(3) -0.1711(3)
C5GA C 0.6259(3) 0.5863(3) 0.1711(3)
C5AB C 0.5863(3) 0.6711(3) 0.1259(3)
C5A C 0.6711(3) 0.6259(3) 0.0863(3)
C5IA C 0.6259(3) 0.4137(3) -0.1711(3)
C5ZA C 0.5863(3) 0.3289(3) -0.1259(3)
C5B C 0.6711(3) 0.3741(3) -0.0863(3)
C6CB C 0.4691(3) 0.3168(2) 0.0844(3)
C6C C 0.3168(3) 0.5844(2) -0.0309(3)
C6FA C 0.4156(3) 0.5309(2) -0.1832(3)
C6BB C 0.4691(3) 0.6832(2) -0.0844(3)
C6HA C 0.4156(3) 0.4691(2) 0.1832(3)
C6A C 0.6832(3) 0.5844(2) 0.0309(3)
C6GA C 0.5844(3) 0.5309(2) 0.1832(3)
C6IA C 0.5844(3) 0.4691(2) -0.1832(3)
C6B C 0.6832(3) 0.4156(2) -0.0309(3)
C6ZA C 0.5309(3) 0.3168(2) -0.0844(3)
C6AB C 0.5309(3) 0.6832(2) 0.0844(3)
C7CB C 0.4893(3) 0.2541(3) 0.0735(3)
C7C C 0.2541(3) 0.5735(3) -0.0107(3)
C7FA C 0.4265(3) 0.5107(3) -0.2459(3)
C7BB C 0.4893(3) 0.7459(3) -0.0735(3)
C7HA C 0.4265(3) 0.4893(3) 0.2459(3)
C7A C 0.7459(3) 0.5735(3) 0.0107(3)
C7GA C 0.5735(3) 0.5107(3) 0.2459(3)
C7IA C 0.5735(3) 0.4893(3) -0.2459(3)
C7B C 0.7459(3) 0.4265(3) -0.0107(3)
C7ZA C 0.5107(3) 0.2541(3) -0.0735(3)
C7AB C 0.5107(3) 0.7459(3) 0.0735(3)
H4FA H 0.43710 0.49450 -0.26260
H4BB H 0.50550 0.76260 -0.06290
H4C H 0.23740 0.56290 0.00550
H4HA H 0.43710 0.50550 0.26260
H4GA H 0.56290 0.49450 0.26260
H4B H 0.76260 0.43710 0.00550
H4ZA H 0.49450 0.23740 -0.06290
H4IA H 0.56290 0.50550 -0.26260
H4A H 0.76260 0.56290 -0.00550
H4AB H 0.49450 0.76260 0.06290
H4CB H 0.50550 0.23740 0.06290
#END

data_CSD_CIF_KEMLOD
_audit_creation_date 1991-01-07
_audit_creation_method CSD-ConQuest-V1
_database_code_CSD KEMLOD
_database_code_depnum_ccdc_archive 'CCDC 1194952'
_chemical_formula_sum 'C16 Co4 O16 Sn1'
_chemical_formula_moiety
;
C16 Co4 O16 Sn1
;
_journal_coeditor_code "IUCr HH0298"
_journal_coden_Cambridge 591
_journal_volume 46
_journal_year 1990
_journal_page_first 732
_journal_name_full 'Acta Crystallogr.,Sect.C:Cryst.Struct.Commun. '
loop_
_publ_author_name
"J.S.Leigh"
"K.H.Whitmire"
_chemical_name_systematic
;
tetrakis(Tetracarbonyl-cobalt)-tin
;
_cell_volume   5137.418
_exptl_crystal_density_diffrn 2.08
_exptl_special_details
;
Isostructural with the Pb and Bi analogues

;
_diffrn_ambient_temperature ?
_diffrn_special_details
;
The study was carried out at room temperature,in the range 283-303K

;
#These two values have been output from a single CSD field.
_refine_ls_R_factor_gt 0.017
_refine_ls_wR_factor_gt 0.017
_symmetry_cell_setting cubic
_symmetry_space_group_name_H-M 'F -4 3 c'
_symmetry_Int_Tables_number 219
loop_
_symmetry_equiv_pos_site_id
_symmetry_equiv_pos_as_xyz
1 x,y,z
2 x,1/2+y,1/2+z
3 1/2+x,y,1/2+z
4 1/2+x,1/2+y,z
5 z,x,y
6 y,z,x
7 1/2+z,x,1/2+y
8 1/2+y,1/2+z,x
9 1/2+z,1/2+x,y
10 y,1/2+z,1/2+x
11 z,1/2+x,1/2+y
12 1/2+y,z,1/2+x
13 x,-y,-z
14 x,1/2-y,1/2-z
15 1/2+x,-y,1/2-z
16 1/2+x,1/2-y,-z
17 z,-x,-y
18 y,-z,-x
19 1/2+z,-x,1/2-y
20 1/2+y,1/2-z,-x
21 1/2+z,1/2-x,-y
22 y,1/2-z,1/2-x
23 z,1/2-x,1/2-y
24 1/2+y,-z,1/2-x
25 -x,y,-z
26 -x,1/2+y,1/2-z
27 1/2-x,y,1/2-z
28 1/2-x,1/2+y,-z
29 -z,x,-y
30 -y,z,-x
31 1/2-z,x,1/2-y
32 1/2-y,1/2+z,-x
33 1/2-z,1/2+x,-y
34 -y,1/2+z,1/2-x
35 -z,1/2+x,1/2-y
36 1/2-y,z,1/2-x
37 -x,-y,z
38 -x,1/2-y,1/2+z
39 1/2-x,-y,1/2+z
40 1/2-x,1/2-y,z
41 -z,-x,y
42 -y,-z,x
43 1/2-z,-x,1/2+y
44 1/2-y,1/2-z,x
45 1/2-z,1/2-x,y
46 -y,1/2-z,1/2+x
47 -z,1/2-x,1/2+y
48 1/2-y,-z,1/2+x
49 y,x,1/2+z
50 1/2+y,x,z
51 y,1/2+x,z
52 1/2+y,1/2+x,1/2+z
53 x,z,1/2+y
54 z,y,1/2+x
55 x,1/2+z,y
56 1/2+z,1/2+y,1/2+x
57 1/2+x,1/2+z,1/2+y
58 1/2+z,y,x
59 1/2+x,z,y
60 z,1/2+y,x
61 -y,x,1/2-z
62 1/2-y,x,-z
63 -y,1/2+x,-z
64 1/2-y,1/2+x,1/2-z
65 -x,z,1/2-y
66 -z,y,1/2-x
67 -x,1/2+z,-y
68 1/2-z,1/2+y,1/2-x
69 1/2-x,1/2+z,1/2-y
70 1/2-z,y,-x
71 1/2-x,z,-y
72 -z,1/2+y,-x
73 y,-x,1/2-z
74 1/2+y,-x,-z
75 y,1/2-x,-z
76 1/2+y,1/2-x,1/2-z
77 x,-z,1/2-y
78 z,-y,1/2-x
79 x,1/2-z,-y
80 1/2+z,1/2-y,1/2-x
81 1/2+x,1/2-z,1/2-y
82 1/2+z,-y,-x
83 1/2+x,-z,-y
84 z,1/2-y,-x
85 -y,-x,1/2+z
86 1/2-y,-x,z
87 -y,1/2-x,z
88 1/2-y,1/2-x,1/2+z
89 -x,-z,1/2+y
90 -z,-y,1/2+x
91 -x,1/2-z,y
92 1/2-z,1/2-y,1/2+x
93 1/2-x,1/2-z,1/2+y
94 1/2-z,-y,x
95 1/2-x,-z,y
96 -z,1/2-y,x
_cell_length_a 17.255(2)
_cell_length_b 17.255(2)
_cell_length_c 17.255(2)
_cell_angle_alpha 90
_cell_angle_beta 90
_cell_angle_gamma 90
_cell_formula_units_Z 8
loop_
_atom_type_symbol
_atom_type_radius_bond
C 0.68
Co 1.33
O 0.68
Sn 1.46
loop_
_atom_site_label
_atom_site_type_symbol
_atom_site_fract_x
_atom_site_fract_y
_atom_site_fract_z
Sn1 Sn 0.00000 0.00000 0.00000
Co1 Co -0.08930 -0.08930 -0.08930
O1 O -0.1863(3) -0.18630 -0.18630
O2 O -0.1928(3) 0.0427(3) -0.1090(3)
C1 C -0.1499(4) -0.14990 -0.14990
C2 C -0.1507(3) -0.0073(4) -0.0991(4)
C2D C -0.0991(3) -0.1507(4) -0.0073(4)
O2D O -0.1090(3) -0.1928(3) 0.0427(3)
C2E C -0.0073(3) -0.0991(4) -0.1507(4)
O2E O 0.0427(3) -0.1090(3) -0.1928(3)
Co1L Co -0.08930 0.08930 0.08930
C1L C -0.1499(4) 0.14990 0.14990
O1L O -0.1863(3) 0.18630 0.18630
C2L C -0.1507(3) 0.0073(4) 0.0991(4)
O2L O -0.1928(3) -0.0427(3) 0.1090(3)
C2P C -0.0991(3) 0.1507(4) 0.0073(4)
O2P O -0.1090(3) 0.1928(3) -0.0427(3)
C2Q C -0.0073(3) 0.0991(4) 0.1507(4)
O2Q O 0.0427(3) 0.1090(3) 0.1928(3)
Co1X Co 0.08930 -0.08930 0.08930
C1X C 0.1499(4) -0.14990 0.14990
O1X O 0.1863(3) -0.18630 0.18630
C2X C 0.1507(3) -0.0073(4) 0.0991(4)
O2X O 0.1928(3) 0.0427(3) 0.1090(3)
C2BA C 0.0991(3) -0.1507(4) 0.0073(4)
O2BA O 0.1090(3) -0.1928(3) -0.0427(3)
C2CA C 0.0073(3) -0.0991(4) 0.1507(4)
O2CA O -0.0427(3) -0.1090(3) 0.1928(3)
Co1JA Co 0.08930 0.08930 -0.08930
C1JA C 0.1499(4) 0.14990 -0.14990
O1JA O 0.1863(3) 0.18630 -0.18630
C2JA C 0.1507(3) 0.0073(4) -0.0991(4)
O2JA O 0.1928(3) -0.0427(3) -0.1090(3)
C2NA C 0.0991(3) 0.1507(4) -0.0073(4)
O2NA O 0.1090(3) 0.1928(3) 0.0427(3)
C2OA C 0.0073(3) 0.0991(4) -0.1507(4)
O2OA O -0.0427(3) 0.1090(3) -0.1928(3)
#END

data_CSD_CIF_KEMLOD01
_audit_creation_date 1991-01-07
_audit_creation_method CSD-ConQuest-V1
_database_code_CSD KEMLOD01
_chemical_formula_sum 'C16 Co4 O16 Sn1'
_chemical_formula_moiety
;
C16 Co4 O16 Sn1
;
_journal_coden_Cambridge 579
_journal_volume 9
_journal_year 1990
_journal_page_first 959
_journal_name_full 'Organometallics '
loop_
_publ_author_name
"A.Cabrera"
"H.Samain"
"A.Mortreux"
"F.Petit"
"A.J.Welch"
_chemical_name_systematic
;
tetrakis(Tetracarbonyl-cobalt)-tin
;
_cell_volume   5178.615
_exptl_crystal_colour 'red'
_exptl_crystal_density_diffrn 2.058
_diffrn_ambient_temperature ?
_diffrn_special_details
;
The study was carried out at room temperature,in the range 283-303K

;
#These two values have been output from a single CSD field.
_refine_ls_R_factor_gt 0.0318
_refine_ls_wR_factor_gt 0.0318
_symmetry_cell_setting cubic
_symmetry_space_group_name_H-M 'F -4 3 c'
_symmetry_Int_Tables_number 219
loop_
_symmetry_equiv_pos_site_id
_symmetry_equiv_pos_as_xyz
1 x,y,z
2 x,1/2+y,1/2+z
3 1/2+x,y,1/2+z
4 1/2+x,1/2+y,z
5 z,x,y
6 y,z,x
7 1/2+z,x,1/2+y
8 1/2+y,1/2+z,x
9 1/2+z,1/2+x,y
10 y,1/2+z,1/2+x
11 z,1/2+x,1/2+y
12 1/2+y,z,1/2+x
13 x,-y,-z
14 x,1/2-y,1/2-z
15 1/2+x,-y,1/2-z
16 1/2+x,1/2-y,-z
17 z,-x,-y
18 y,-z,-x
19 1/2+z,-x,1/2-y
20 1/2+y,1/2-z,-x
21 1/2+z,1/2-x,-y
22 y,1/2-z,1/2-x
23 z,1/2-x,1/2-y
24 1/2+y,-z,1/2-x
25 -x,y,-z
26 -x,1/2+y,1/2-z
27 1/2-x,y,1/2-z
28 1/2-x,1/2+y,-z
29 -z,x,-y
30 -y,z,-x
31 1/2-z,x,1/2-y
32 1/2-y,1/2+z,-x
33 1/2-z,1/2+x,-y
34 -y,1/2+z,1/2-x
35 -z,1/2+x,1/2-y
36 1/2-y,z,1/2-x
37 -x,-y,z
38 -x,1/2-y,1/2+z
39 1/2-x,-y,1/2+z
40 1/2-x,1/2-y,z
41 -z,-x,y
42 -y,-z,x
43 1/2-z,-x,1/2+y
44 1/2-y,1/2-z,x
45 1/2-z,1/2-x,y
46 -y,1/2-z,1/2+x
47 -z,1/2-x,1/2+y
48 1/2-y,-z,1/2+x
49 y,x,1/2+z
50 1/2+y,x,z
51 y,1/2+x,z
52 1/2+y,1/2+x,1/2+z
53 x,z,1/2+y
54 z,y,1/2+x
55 x,1/2+z,y
56 1/2+z,1/2+y,1/2+x
57 1/2+x,1/2+z,1/2+y
58 1/2+z,y,x
59 1/2+x,z,y
60 z,1/2+y,x
61 -y,x,1/2-z
62 1/2-y,x,-z
63 -y,1/2+x,-z
64 1/2-y,1/2+x,1/2-z
65 -x,z,1/2-y
66 -z,y,1/2-x
67 -x,1/2+z,-y
68 1/2-z,1/2+y,1/2-x
69 1/2-x,1/2+z,1/2-y
70 1/2-z,y,-x
71 1/2-x,z,-y
72 -z,1/2+y,-x
73 y,-x,1/2-z
74 1/2+y,-x,-z
75 y,1/2-x,-z
76 1/2+y,1/2-x,1/2-z
77 x,-z,1/2-y
78 z,-y,1/2-x
79 x,1/2-z,-y
80 1/2+z,1/2-y,1/2-x
81 1/2+x,1/2-z,1/2-y
82 1/2+z,-y,-x
83 1/2+x,-z,-y
84 z,1/2-y,-x
85 -y,-x,1/2+z
86 1/2-y,-x,z
87 -y,1/2-x,z
88 1/2-y,1/2-x,1/2+z
89 -x,-z,1/2+y
90 -z,-y,1/2+x
91 -x,1/2-z,y
92 1/2-z,1/2-y,1/2+x
93 1/2-x,1/2-z,1/2+y
94 1/2-z,-y,x
95 1/2-x,-z,y
96 -z,1/2-y,x
_cell_length_a 17.301(3)
_cell_length_b 17.301(3)
_cell_length_c 17.301(3)
_cell_angle_alpha 90
_cell_angle_beta 90
_cell_angle_gamma 90
_cell_formula_units_Z 8
loop_
_atom_type_symbol
_atom_type_radius_bond
C 0.68
Co 1.33
O 0.68
Sn 1.46
loop_
_atom_site_label
_atom_site_type_symbol
_atom_site_fract_x
_atom_site_fract_y
_atom_site_fract_z
Sn1 Sn 0.00000 0.00000 0.00000
Co1 Co 0.08911(8) -0.08911 0.08911
C1 C 0.0081(8) -0.1007(8) 0.1507(7)
C2 C 0.1499(9) -0.14990 0.14990
O1 O -0.0425(5) -0.1084(6) 0.1938(5)
O2 O 0.1875(6) -0.18750 0.18750
Co1D Co 0.08911(8) 0.08911 -0.08911
Co1E Co -0.08911(8) 0.08911 0.08911
Co1Q Co -0.08911(8) -0.08911 -0.08911
C1P C 0.1507(8) -0.0081(8) 0.1007(7)
C1OA C 0.1007(8) -0.1507(8) 0.0081(7)
C1D C 0.1507(8) 0.0081(8) -0.1007(7)
C1L C 0.0081(8) 0.1007(8) -0.1507(7)
C1CA C 0.1007(8) 0.1507(8) -0.0081(7)
C2D C 0.1499(9) 0.14990 -0.14990
C1E C -0.1007(8) 0.1507(8) 0.0081(7)
C1BA C -0.1507(8) 0.0081(8) 0.1007(7)
C1JA C -0.0081(8) 0.1007(8) 0.1507(7)
C2E C -0.1499(9) 0.14990 0.14990
C1Q C -0.1007(8) -0.1507(8) -0.0081(7)
C1X C -0.0081(8) -0.1007(8) -0.1507(7)
C1NA C -0.1507(8) -0.0081(8) -0.1007(7)
C2Q C -0.1499(9) -0.14990 -0.14990
O1P O 0.1938(5) 0.0425(6) 0.1084(5)
O1OA O 0.1084(5) -0.1938(6) -0.0425(5)
O1D O 0.1938(5) -0.0425(6) -0.1084(5)
O1L O -0.0425(5) 0.1084(6) -0.1938(5)
O1CA O 0.1084(5) 0.1938(6) 0.0425(5)
O2D O 0.1875(6) 0.18750 -0.18750
O1E O -0.1084(5) 0.1938(6) -0.0425(5)
O1BA O -0.1938(5) -0.0425(6) 0.1084(5)
O1JA O 0.0425(5) 0.1084(6) 0.1938(5)
O2E O -0.1875(6) 0.18750 0.18750
O1Q O -0.1084(5) -0.1938(6) 0.0425(5)
O1X O 0.0425(5) -0.1084(6) -0.1938(5)
O1NA O -0.1938(5) 0.0425(6) -0.1084(5)
O2Q O -0.1875(6) -0.18750 -0.18750
#END

data_CSD_CIF_KTMSIO01
_audit_creation_date 1993-12-13
_audit_creation_method CSD-ConQuest-V1
_database_code_CSD KTMSIO01
_chemical_formula_sum 'C3 H9 K1 O1 Si1'
_chemical_formula_moiety
;
C3 H9 O1 Si1 1-,K1 1+
;
_journal_coeditor_code "IUCr SH1040"
_journal_coden_Cambridge 591
_journal_volume 49
_journal_year 1993
_journal_page_first 1283
_journal_name_full 'Acta Crystallogr.,Sect.C:Cryst.Struct.Commun. '
loop_
_publ_author_name
"F.Pauer"
"G.M.Sheldrick"
_chemical_name_systematic
;
Potassium 2-methyl-2-sila-2-propanolate
;
_chemical_name_common
;
Potassium trimethyl-silanolate
;
_cell_volume   5426.724
_exptl_crystal_colour 'Colorless'
_exptl_crystal_density_diffrn 1.256
_exptl_special_details
;
F-43c polymorph

;
_diffrn_ambient_temperature 153
#These two values have been output from a single CSD field.
_refine_ls_R_factor_gt 0.0227
_refine_ls_wR_factor_gt 0.0227
_symmetry_cell_setting cubic
_symmetry_space_group_name_H-M 'F -4 3 c'
_symmetry_Int_Tables_number 219
loop_
_symmetry_equiv_pos_site_id
_symmetry_equiv_pos_as_xyz
1 x,y,z
2 x,1/2+y,1/2+z
3 1/2+x,y,1/2+z
4 1/2+x,1/2+y,z
5 z,x,y
6 y,z,x
7 1/2+z,x,1/2+y
8 1/2+y,1/2+z,x
9 1/2+z,1/2+x,y
10 y,1/2+z,1/2+x
11 z,1/2+x,1/2+y
12 1/2+y,z,1/2+x
13 x,-y,-z
14 x,1/2-y,1/2-z
15 1/2+x,-y,1/2-z
16 1/2+x,1/2-y,-z
17 z,-x,-y
18 y,-z,-x
19 1/2+z,-x,1/2-y
20 1/2+y,1/2-z,-x
21 1/2+z,1/2-x,-y
22 y,1/2-z,1/2-x
23 z,1/2-x,1/2-y
24 1/2+y,-z,1/2-x
25 -x,y,-z
26 -x,1/2+y,1/2-z
27 1/2-x,y,1/2-z
28 1/2-x,1/2+y,-z
29 -z,x,-y
30 -y,z,-x
31 1/2-z,x,1/2-y
32 1/2-y,1/2+z,-x
33 1/2-z,1/2+x,-y
34 -y,1/2+z,1/2-x
35 -z,1/2+x,1/2-y
36 1/2-y,z,1/2-x
37 -x,-y,z
38 -x,1/2-y,1/2+z
39 1/2-x,-y,1/2+z
40 1/2-x,1/2-y,z
41 -z,-x,y
42 -y,-z,x
43 1/2-z,-x,1/2+y
44 1/2-y,1/2-z,x
45 1/2-z,1/2-x,y
46 -y,1/2-z,1/2+x
47 -z,1/2-x,1/2+y
48 1/2-y,-z,1/2+x
49 y,x,1/2+z
50 1/2+y,x,z
51 y,1/2+x,z
52 1/2+y,1/2+x,1/2+z
53 x,z,1/2+y
54 z,y,1/2+x
55 x,1/2+z,y
56 1/2+z,1/2+y,1/2+x
57 1/2+x,1/2+z,1/2+y
58 1/2+z,y,x
59 1/2+x,z,y
60 z,1/2+y,x
61 -y,x,1/2-z
62 1/2-y,x,-z
63 -y,1/2+x,-z
64 1/2-y,1/2+x,1/2-z
65 -x,z,1/2-y
66 -z,y,1/2-x
67 -x,1/2+z,-y
68 1/2-z,1/2+y,1/2-x
69 1/2-x,1/2+z,1/2-y
70 1/2-z,y,-x
71 1/2-x,z,-y
72 -z,1/2+y,-x
73 y,-x,1/2-z
74 1/2+y,-x,-z
75 y,1/2-x,-z
76 1/2+y,1/2-x,1/2-z
77 x,-z,1/2-y
78 z,-y,1/2-x
79 x,1/2-z,-y
80 1/2+z,1/2-y,1/2-x
81 1/2+x,1/2-z,1/2-y
82 1/2+z,-y,-x
83 1/2+x,-z,-y
84 z,1/2-y,-x
85 -y,-x,1/2+z
86 1/2-y,-x,z
87 -y,1/2-x,z
88 1/2-y,1/2-x,1/2+z
89 -x,-z,1/2+y
90 -z,-y,1/2+x
91 -x,1/2-z,y
92 1/2-z,1/2-y,1/2+x
93 1/2-x,1/2-z,1/2+y
94 1/2-z,-y,x
95 1/2-x,-z,y
96 -z,1/2-y,x
_cell_length_a 17.573(2)
_cell_length_b 17.573(2)
_cell_length_c 17.573(2)
_cell_angle_alpha 90
_cell_angle_beta 90
_cell_angle_gamma 90
_cell_formula_units_Z 32
loop_
_atom_type_symbol
_atom_type_radius_bond
C 0.68
H 0.23
K 1.33
O 0.68
Si 1.20
loop_
_atom_site_label
_atom_site_type_symbol
_atom_site_fract_x
_atom_site_fract_y
_atom_site_fract_z
K1 K 0.82521(2) 0.82521(2) 0.82521(2)
Si1 Si 0.62369(3) 0.62369(3) 0.62369(3)
O1 O 0.67561(6) 0.67561(6) 0.67561(6)
C1 C 0.61473(14) 0.66142(13) 0.52405(10)
H1 H 0.66606(15) 0.6680(6) 0.5018(3)
H2 H 0.5882(6) 0.7111(4) 0.52509(12)
H3 H 0.5852(6) 0.6250(4) 0.4928(2)
C1D C 0.52405(14) 0.61473(13) 0.66142(10)
C1E C 0.66142(14) 0.52405(13) 0.61473(10)
H1D H 0.50180(15) 0.66606(60) 0.6680(3)
H2D H 0.52509(60) 0.5882(4) 0.71110(12)
H3D H 0.4928(6) 0.5852(4) 0.6250(2)
H1E H 0.66800(15) 0.5018(6) 0.66606(30)
H2E H 0.7111(6) 0.52509(40) 0.58820(12)
H3E H 0.6250(6) 0.4928(4) 0.5852(2)
#END

data_CSD_CIF_KTMSIO02
_audit_creation_date 2003-07-18
_audit_creation_method CSD-ConQuest-V1
_database_code_CSD KTMSIO02
_database_code_depnum_ccdc_archive 'CCDC 207444'
_chemical_formula_sum 'C12 H36 K4 O4 Si4'
_chemical_formula_moiety
;
C12 H36 K4 O4 Si4
;
_journal_coden_Cambridge 1078
_journal_year 2003
_journal_name_full 'CSD Communication(Private Communication) '
loop_
_publ_author_name
"W.Lerner"
"M.Bolte"
_chemical_name_systematic
;
tetrakis(\m~3~-Trimethylsiloxo)-tetra-potassium
;
_cell_volume   5472.712
_exptl_crystal_colour 'colorless'
_exptl_crystal_density_diffrn 1.246
_exptl_special_details
;
F-43c polymorph
contribution from Institut fuer Organische Chemie, J.-W.-Goethe-Universitaet, 
Marie- Curie-Str. 11, 60439 Frankfurt/Main, Germany
;
_exptl_crystal_description 'block'
_diffrn_ambient_temperature 173
#These two values have been output from a single CSD field.
_refine_ls_R_factor_gt 0.0366
_refine_ls_wR_factor_gt 0.0366
_symmetry_cell_setting cubic
_symmetry_space_group_name_H-M 'F -4 3 c'
_symmetry_Int_Tables_number 219
loop_
_symmetry_equiv_pos_site_id
_symmetry_equiv_pos_as_xyz
1 x,y,z
2 -x,-y,z
3 -x,y,-z
4 x,-y,-z
5 z,x,y
6 z,-x,-y
7 -z,-x,y
8 -z,x,-y
9 y,z,x
10 -y,z,-x
11 y,-z,-x
12 -y,-z,x
13 1/2+y,1/2+x,1/2+z
14 1/2-y,1/2-x,1/2+z
15 1/2+y,1/2-x,1/2-z
16 1/2-y,1/2+x,1/2-z
17 1/2+x,1/2+z,1/2+y
18 1/2-x,1/2+z,1/2-y
19 1/2-x,1/2-z,1/2+y
20 1/2+x,1/2-z,1/2-y
21 1/2+z,1/2+y,1/2+x
22 1/2+z,1/2-y,1/2-x
23 1/2-z,1/2+y,1/2-x
24 1/2-z,1/2-y,1/2+x
25 x,1/2+y,1/2+z
26 -x,1/2-y,1/2+z
27 -x,1/2+y,1/2-z
28 x,1/2-y,1/2-z
29 z,1/2+x,1/2+y
30 z,1/2-x,1/2-y
31 -z,1/2-x,1/2+y
32 -z,1/2+x,1/2-y
33 y,1/2+z,1/2+x
34 -y,1/2+z,1/2-x
35 y,1/2-z,1/2-x
36 -y,1/2-z,1/2+x
37 1/2+y,x,z
38 1/2-y,-x,z
39 1/2+y,-x,-z
40 1/2-y,x,-z
41 1/2+x,z,y
42 1/2-x,z,-y
43 1/2-x,-z,y
44 1/2+x,-z,-y
45 1/2+z,y,x
46 1/2+z,-y,-x
47 1/2-z,y,-x
48 1/2-z,-y,x
49 1/2+x,y,1/2+z
50 1/2-x,-y,1/2+z
51 1/2-x,y,1/2-z
52 1/2+x,-y,1/2-z
53 1/2+z,x,1/2+y
54 1/2+z,-x,1/2-y
55 1/2-z,-x,1/2+y
56 1/2-z,x,1/2-y
57 1/2+y,z,1/2+x
58 1/2-y,z,1/2-x
59 1/2+y,-z,1/2-x
60 1/2-y,-z,1/2+x
61 y,1/2+x,z
62 -y,1/2-x,z
63 y,1/2-x,-z
64 -y,1/2+x,-z
65 x,1/2+z,y
66 -x,1/2+z,-y
67 -x,1/2-z,y
68 x,1/2-z,-y
69 z,1/2+y,x
70 z,1/2-y,-x
71 -z,1/2+y,-x
72 -z,1/2-y,x
73 1/2+x,1/2+y,z
74 1/2-x,1/2-y,z
75 1/2-x,1/2+y,-z
76 1/2+x,1/2-y,-z
77 1/2+z,1/2+x,y
78 1/2+z,1/2-x,-y
79 1/2-z,1/2-x,y
80 1/2-z,1/2+x,-y
81 1/2+y,1/2+z,x
82 1/2-y,1/2+z,-x
83 1/2+y,1/2-z,-x
84 1/2-y,1/2-z,x
85 y,x,1/2+z
86 -y,-x,1/2+z
87 y,-x,1/2-z
88 -y,x,1/2-z
89 x,z,1/2+y
90 -x,z,1/2-y
91 -x,-z,1/2+y
92 x,-z,1/2-y
93 z,y,1/2+x
94 z,-y,1/2-x
95 -z,y,1/2-x
96 -z,-y,1/2+x
_cell_length_a 17.6225(18)
_cell_length_b 17.6225(18)
_cell_length_c 17.6225(18)
_cell_angle_alpha 90
_cell_angle_beta 90
_cell_angle_gamma 90
_cell_formula_units_Z 8
loop_
_atom_type_symbol
_atom_type_radius_bond
C 0.68
H 0.23
K 1.63
O 0.68
Si 1.20
loop_
_atom_site_label
_atom_site_type_symbol
_atom_site_fract_x
_atom_site_fract_y
_atom_site_fract_z
K1 K 0.82512(2) 0.82512(2) 0.82512(2)
Si1 Si 0.62364(3) 0.87636(3) 0.87636(3)
O1 O 0.67578(8) 0.82422(8) 0.82422(8)
C1 C 0.61488(18) 0.83841(18) 0.97630(14)
H1 H 0.66560 0.83280 0.99850
H2 H 0.58950 0.78890 0.97520
H3 H 0.58500 0.87390 1.00700
K1EB K 0.67488(2) 0.82512(2) 0.67488(2)
O1H O 0.82422(8) 0.82422(8) 0.67578(8)
O1UB O 0.82422(8) 0.67578(8) 0.82422(8)
K1UB K 0.67488(2) 0.67488(2) 0.82512(2)
C1ZB C 0.52370(18) 0.88512(18) 0.83841(14)
H1ZB H 0.50150 0.83440 0.83280
H2ZB H 0.52480 0.91050 0.78890
H3ZB H 0.49300 0.91500 0.87390
C1EB C 0.66159(18) 0.97630(18) 0.88512(14)
H1EB H 0.66720 0.99850 0.83440
H2EB H 0.71110 0.97520 0.91050
H3EB H 0.62610 1.00700 0.91500
O1AA O 0.67578(8) 0.67578(8) 0.67578(8)
K1AA K 0.82512(2) 0.67488(2) 0.67488(2)
Si1H Si 0.87636(3) 0.87636(3) 0.62364(3)
C1H C 0.83841(18) 0.97630(18) 0.61488(14)
H1H H 0.83280 0.99850 0.66560
H2H H 0.78890 0.97520 0.58950
H3H H 0.87390 1.00700 0.58500
C1XA C 0.88512(18) 0.83841(18) 0.52370(14)
H1XA H 0.83440 0.83280 0.50150
H2XA H 0.91050 0.78890 0.52480
H3XA H 0.91500 0.87390 0.49300
C1CA C 0.97630(18) 0.88512(18) 0.66159(14)
H1CA H 0.99850 0.83440 0.66720
H2CA H 0.97520 0.91050 0.71110
H3CA H 1.00700 0.91500 0.62610
Si1UB Si 0.87636(3) 0.62364(3) 0.87636(3)
C1UB C 0.88512(18) 0.66159(18) 0.97630(14)
H1UB H 0.83440 0.66720 0.99850
H2UB H 0.91050 0.71110 0.97520
H3UB H 0.91500 0.62610 1.00700
C1D C 0.97630(18) 0.61488(18) 0.83841(14)
H1D H 0.99850 0.66560 0.83280
H2D H 0.97520 0.58950 0.78890
H3D H 1.00700 0.58500 0.87390
C1HA C 0.83841(18) 0.52370(18) 0.88512(14)
H1HA H 0.83280 0.50150 0.83440
H2HA H 0.78890 0.52480 0.91050
H3HA H 0.87390 0.49300 0.91500
Si1AA Si 0.62364(3) 0.62364(3) 0.62364(3)
C1AA C 0.61488(18) 0.66159(18) 0.52370(14)
H1AA H 0.66560 0.66720 0.50150
H2AA H 0.58950 0.71110 0.52480
H3AA H 0.58500 0.62610 0.49300
C1CB C 0.52370(18) 0.61488(18) 0.66159(14)
H1CB H 0.50150 0.66560 0.66720
H2CB H 0.52480 0.58950 0.71110
H3CB H 0.49300 0.58500 0.62610
C1EC C 0.66159(18) 0.52370(18) 0.61488(14)
H1EC H 0.66720 0.50150 0.66560
H2EC H 0.71110 0.52480 0.58950
H3EC H 0.62610 0.49300 0.58500
#END

data_CSD_CIF_VAGCUE
_audit_creation_date 2016-03-08
_audit_creation_method CSD-ConQuest-V1
_database_code_CSD VAGCUE
_database_code_depnum_ccdc_archive 'CCDC 1442189'
_chemical_formula_sum 'C72 H96 Cd1 Cl2 N8 O16 Se4'
_chemical_formula_moiety
;
C72 H96 Cd1 N8 O8 Se4 2+,2(Cl1 O4 1-)
;
_journal_coden_Cambridge 222
_journal_volume 45
_journal_year 2016
_journal_page_first 6456
_journal_name_full 'Dalton Trans. '
loop_
_publ_author_name
"C.N.Babu"
"K.Srinivas"
"G.Prabusankar"
_chemical_name_systematic
;
tetrakis(methyl 
(3-(2,6-diisopropylphenyl)-2-selanylidene-2,3-dihydro-1H-imidazol-1-yl)acetate
)-cadmium(ii) diperchlorate
;
_cell_volume  61216.556
_exptl_crystal_colour 'colorless'
_exptl_crystal_density_diffrn 1.169
_exptl_crystal_description 'block'
_diffrn_ambient_temperature 293
#These two values have been output from a single CSD field.
_refine_ls_R_factor_gt 0.0413
_refine_ls_wR_factor_gt 0.0413
_symmetry_cell_setting cubic
_symmetry_space_group_name_H-M 'F -4 3 c'
_symmetry_Int_Tables_number 219
loop_
_symmetry_equiv_pos_site_id
_symmetry_equiv_pos_as_xyz
1 x,y,z
2 1/2-x,z,-y
3 1/2-x,-z,y
4 1/2-z,-y,x
5 1/2+z,-y,-x
6 1/2+y,-x,-z
7 1/2-y,x,-z
8 z,x,y
9 y,z,x
10 -y,-z,x
11 z,-x,-y
12 -y,z,-x
13 -z,-x,y
14 -z,x,-y
15 y,-z,-x
16 x,-y,-z
17 -x,y,-z
18 -x,-y,z
19 1/2-y,-x,z
20 1/2+y,x,z
21 1/2-z,y,-x
22 1/2+z,y,x
23 1/2+x,-z,-y
24 1/2+x,z,y
25 x,1/2+y,1/2+z
26 1/2-x,1/2+z,1/2-y
27 1/2-x,1/2-z,1/2+y
28 1/2-z,1/2-y,1/2+x
29 1/2+z,1/2-y,1/2-x
30 1/2+y,1/2-x,1/2-z
31 1/2-y,1/2+x,1/2-z
32 z,1/2+x,1/2+y
33 y,1/2+z,1/2+x
34 -y,1/2-z,1/2+x
35 z,1/2-x,1/2-y
36 -y,1/2+z,1/2-x
37 -z,1/2-x,1/2+y
38 -z,1/2+x,1/2-y
39 y,1/2-z,1/2-x
40 x,1/2-y,1/2-z
41 -x,1/2+y,1/2-z
42 -x,1/2-y,1/2+z
43 1/2-y,1/2-x,1/2+z
44 1/2+y,1/2+x,1/2+z
45 1/2-z,1/2+y,1/2-x
46 1/2+z,1/2+y,1/2+x
47 1/2+x,1/2-z,1/2-y
48 1/2+x,1/2+z,1/2+y
49 1/2+x,y,1/2+z
50 -x,z,1/2-y
51 -x,-z,1/2+y
52 -z,-y,1/2+x
53 z,-y,1/2-x
54 y,-x,1/2-z
55 -y,x,1/2-z
56 1/2+z,x,1/2+y
57 1/2+y,z,1/2+x
58 1/2-y,-z,1/2+x
59 1/2+z,-x,1/2-y
60 1/2-y,z,1/2-x
61 1/2-z,-x,1/2+y
62 1/2-z,x,1/2-y
63 1/2+y,-z,1/2-x
64 1/2+x,-y,1/2-z
65 1/2-x,y,1/2-z
66 1/2-x,-y,1/2+z
67 -y,-x,1/2+z
68 y,x,1/2+z
69 -z,y,1/2-x
70 z,y,1/2+x
71 x,-z,1/2-y
72 x,z,1/2+y
73 1/2+x,1/2+y,z
74 -x,1/2+z,-y
75 -x,1/2-z,y
76 -z,1/2-y,x
77 z,1/2-y,-x
78 y,1/2-x,-z
79 -y,1/2+x,-z
80 1/2+z,1/2+x,y
81 1/2+y,1/2+z,x
82 1/2-y,1/2-z,x
83 1/2+z,1/2-x,-y
84 1/2-y,1/2+z,-x
85 1/2-z,1/2-x,y
86 1/2-z,1/2+x,-y
87 1/2+y,1/2-z,-x
88 1/2+x,1/2-y,-z
89 1/2-x,1/2+y,-z
90 1/2-x,1/2-y,z
91 -y,1/2-x,z
92 y,1/2+x,z
93 -z,1/2+y,-x
94 z,1/2+y,x
95 x,1/2-z,-y
96 x,1/2+z,y
_cell_length_a 39.4115(4)
_cell_length_b 39.4115(4)
_cell_length_c 39.4115(4)
_cell_angle_alpha 90
_cell_angle_beta 90
_cell_angle_gamma 90
_cell_formula_units_Z 24
loop_
_atom_type_symbol
_atom_type_radius_bond
C 0.68
H 0.23
Cd 1.44
Cl 0.99
N 0.68
O 0.68
Se 1.22
loop_
_atom_site_label
_atom_site_type_symbol
_atom_site_fract_x
_atom_site_fract_y
_atom_site_fract_z
Cd1 Cd 0.00000 0.00000 0.25000
Se1 Se -0.016128(15) 0.060935(15) 0.228417(17)
O1 O 0.01406(16) 0.08984(13) 0.14811(12)
O2 O 0.03315(17) 0.04063(14) 0.12864(13)
N1 N 0.05016(12) 0.08279(12) 0.20714(10)
N2 N 0.03022(11) 0.11332(11) 0.24776(12)
C1 C 0.02376(13) 0.08592(13) 0.22803(13)
C2 C 0.07280(16) 0.10834(18) 0.21346(15)
H1 H 0.09328(16) 0.11168(18) 0.20224(15)
C3 C 0.06086(16) 0.12716(17) 0.23779(16)
H2 H 0.07108(16) 0.14642(17) 0.24682(16)
C4 C 0.00855(14) 0.12571(14) 0.27497(13)
C5 C -0.02036(15) 0.14409(15) 0.26646(13)
C6 C -0.04065(17) 0.15533(17) 0.29305(16)
H3 H -0.06035(17) 0.16755(17) 0.28866(16)
C7 C -0.0311(2) 0.14807(18) 0.32660(16)
H4 H -0.0449(2) 0.15534(18) 0.34430(16)
C8 C -0.00244(19) 0.13081(16) 0.33380(14)
H5 H 0.00357(19) 0.12722(16) 0.35634(14)
C9 C 0.01823(17) 0.11831(14) 0.30820(14)
C10 C 0.05045(18) 0.09913(17) 0.31676(16)
H6 H 0.05847(18) 0.08768(17) 0.29619(16)
C11 C 0.0784(2) 0.1233(2) 0.3291(3)
H7 H 0.0821(15) 0.1406(12) 0.3124(10)
H8 H 0.0716(9) 0.1335(16) 0.3501(11)
H9 H 0.0990(6) 0.1108(4) 0.332(2)
C12 C 0.0440(2) 0.0717(2) 0.34464(18)
H10 H 0.0416(17) 0.0826(2) 0.3663(3)
H11 H 0.0236(9) 0.0595(12) 0.3394(9)
H12 H 0.0628(8) 0.0562(10) 0.3453(12)
C13 C -0.02961(19) 0.15384(17) 0.23050(16)
H13 H -0.01521(19) 0.14072(17) 0.21505(16)
C14 C -0.0224(3) 0.1916(2) 0.2245(2)
H14 H -0.0348(14) 0.2049(2) 0.2407(12)
H15 H 0.0015(3) 0.1958(4) 0.2271(17)
H16 H -0.0293(17) 0.1977(5) 0.2020(7)
C15 C -0.0667(2) 0.1457(2) 0.2221(2)
H17 H -0.0712(5) 0.1223(5) 0.2271(17)
H18 H -0.0813(2) 0.1599(13) 0.2355(13)
H19 H -0.0707(5) 0.1499(17) 0.1985(4)
C16 C 0.05366(18) 0.05772(16) 0.18093(15)
H20 H 0.07714(18) 0.0567(12) 0.1736(4)
H21 H 0.0478(12) 0.0356(4) 0.1899(3)
C17 C 0.0313(2) 0.06575(16) 0.15100(15)
C18 C 0.0161(4) 0.0485(3) 0.0961(2)
H22 H 0.0326(7) 0.057(4) 0.0800(12)
H23 H 0.006(3) 0.0284(10) 0.0874(19)
H24 H -0.001(3) 0.066(3) 0.0997(8)
Cl1 Cl 0.50000 0.00000 0.00000
O3 O 0.48017(17) 0.01983(17) 0.01983(17)
Cl2 Cl 0.11869(16) 0.11869(16) 0.11869(16)
O4 O 0.1431(4) 0.1108(6) 0.1032(4)
O5 O 0.1357(6) 0.1357(6) 0.1357(6)
Se1Q Se 0.016128(15) -0.060935(15) 0.228417(17)
O1Q O -0.01406(16) -0.08984(13) 0.14811(12)
O2Q O -0.03315(17) -0.04063(14) 0.12864(13)
N1Q N -0.05016(12) -0.08279(12) 0.20714(10)
N2Q N -0.03022(11) -0.11332(11) 0.24776(12)
C1Q C -0.02376(13) -0.08592(13) 0.22803(13)
C2Q C -0.07280(16) -0.10834(18) 0.21346(15)
H1Q H -0.09328(16) -0.11168(18) 0.20224(15)
C3Q C -0.06086(16) -0.12716(17) 0.23779(16)
H2Q H -0.07108(16) -0.14642(17) 0.24682(16)
C4Q C -0.00855(14) -0.12571(14) 0.27497(13)
C5Q C 0.02036(15) -0.14409(15) 0.26646(13)
C6Q C 0.04065(17) -0.15533(17) 0.29305(16)
H3Q H 0.06035(17) -0.16755(17) 0.28866(16)
C7Q C 0.0311(2) -0.14807(18) 0.32660(16)
H4Q H 0.0449(2) -0.15534(18) 0.34430(16)
C8Q C 0.00244(19) -0.13081(16) 0.33380(14)
H5Q H -0.00357(19) -0.12722(16) 0.35634(14)
C9Q C -0.01823(17) -0.11831(14) 0.30820(14)
C10Q C -0.05045(18) -0.09913(17) 0.31676(16)
H6Q H -0.05847(18) -0.08768(17) 0.29619(16)
C11Q C -0.0784(2) -0.1233(2) 0.3291(3)
H7Q H -0.0821(15) -0.1406(12) 0.3124(10)
H8Q H -0.0716(9) -0.1335(16) 0.3501(11)
H9Q H -0.0990(6) -0.1108(4) 0.332(2)
C12Q C -0.0440(2) -0.0717(2) 0.34464(18)
H10Q H -0.0416(17) -0.0826(2) 0.3663(3)
H11Q H -0.0236(9) -0.0595(12) 0.3394(9)
H12Q H -0.0628(8) -0.0562(10) 0.3453(12)
C13Q C 0.02961(19) -0.15384(17) 0.23050(16)
H13Q H 0.01521(19) -0.14072(17) 0.21505(16)
C14Q C 0.0224(3) -0.1916(2) 0.2245(2)
H14Q H 0.0348(14) -0.2049(2) 0.2407(12)
H15Q H -0.0015(3) -0.1958(4) 0.2271(17)
H16Q H 0.0293(17) -0.1977(5) 0.2020(7)
C15Q C 0.0667(2) -0.1457(2) 0.2221(2)
H17Q H 0.0712(5) -0.1223(5) 0.2271(17)
H18Q H 0.0813(2) -0.1599(13) 0.2355(13)
H19Q H 0.0707(5) -0.1499(17) 0.1985(4)
C16Q C -0.05366(18) -0.05772(16) 0.18093(15)
H20Q H -0.07714(18) -0.0567(12) 0.1736(4)
H21Q H -0.0478(12) -0.0356(4) 0.1899(3)
C17Q C -0.0313(2) -0.06575(16) 0.15100(15)
C18Q C -0.0161(4) -0.0485(3) 0.0961(2)
H22Q H -0.0326(7) -0.057(4) 0.0800(12)
H23Q H -0.006(3) -0.0284(10) 0.0874(19)
H24Q H 0.001(3) -0.066(3) 0.0997(8)
Se1AB Se 0.060935(15) 0.016128(15) 0.271583(17)
O1AB O 0.08984(16) -0.01406(13) 0.35189(12)
O2AB O 0.04063(17) -0.03315(14) 0.37136(13)
N1AB N 0.08279(12) -0.05016(12) 0.29286(10)
N2AB N 0.11332(11) -0.03022(11) 0.25224(12)
C1AB C 0.08592(13) -0.02376(13) 0.27197(13)
C2AB C 0.10834(16) -0.07280(18) 0.28654(15)
H1AB H 0.11168(16) -0.09328(18) 0.29776(15)
C3AB C 0.12716(16) -0.06086(17) 0.26221(16)
H2AB H 0.14642(16) -0.07108(17) 0.25318(16)
C4AB C 0.12571(14) -0.00855(14) 0.22503(13)
C5AB C 0.14409(15) 0.02036(15) 0.23354(13)
C6AB C 0.15533(17) 0.04065(17) 0.20695(16)
H3AB H 0.16755(17) 0.06035(17) 0.21134(16)
C7AB C 0.14807(20) 0.03110(18) 0.17340(16)
H4AB H 0.15534(20) 0.04490(18) 0.15570(16)
C8AB C 0.13081(19) 0.00244(16) 0.16620(14)
H5AB H 0.12722(19) -0.00357(16) 0.14366(14)
C9AB C 0.11831(17) -0.01823(14) 0.19180(14)
C10AB C 0.09913(18) -0.05045(17) 0.18324(16)
H6AB H 0.08768(18) -0.05847(17) 0.20381(16)
C11AB C 0.1233(2) -0.0784(2) 0.1709(3)
H7AB H 0.1406(15) -0.0821(12) 0.1876(10)
H8AB H 0.1335(9) -0.0716(16) 0.1499(11)
H9AB H 0.1108(6) -0.0990(4) 0.168(2)
C12AB C 0.0717(2) -0.0440(2) 0.15536(18)
H10AB H 0.0826(17) -0.0416(2) 0.1337(3)
H11AB H 0.0595(9) -0.0236(12) 0.1606(9)
H12AB H 0.0562(8) -0.0628(10) 0.1547(12)
C13AB C 0.15384(19) 0.02961(17) 0.26950(16)
H13AB H 0.14072(19) 0.01521(17) 0.28495(16)
C14AB C 0.1916(3) 0.0224(2) 0.2755(2)
H14AB H 0.2049(14) 0.0348(2) 0.2593(12)
H15AB H 0.1958(3) -0.0015(4) 0.2729(17)
H16AB H 0.1977(17) 0.0293(5) 0.2980(7)
C15AB C 0.1457(2) 0.0667(2) 0.2779(2)
H17AB H 0.1223(5) 0.0712(5) 0.2729(17)
H18AB H 0.1599(2) 0.0813(13) 0.2645(13)
H19AB H 0.1499(5) 0.0707(17) 0.3015(4)
C16AB C 0.05772(18) -0.05366(16) 0.31907(15)
H20AB H 0.05670(18) -0.07714(120) 0.3264(4)
H21AB H 0.0356(12) -0.0478(4) 0.3101(3)
C17AB C 0.06575(20) -0.03130(16) 0.34900(15)
C18AB C 0.0485(4) -0.0161(3) 0.4039(2)
H22AB H 0.0570(7) -0.0326(40) 0.4200(12)
H23AB H 0.0284(30) -0.006(1) 0.4126(19)
H24AB H 0.066(3) 0.001(3) 0.4003(8)
Se1BB Se -0.060935(15) -0.016128(15) 0.271583(17)
O1BB O -0.08984(16) 0.01406(13) 0.35189(12)
O2BB O -0.04063(17) 0.03315(14) 0.37136(13)
N1BB N -0.08279(12) 0.05016(12) 0.29286(10)
N2BB N -0.11332(11) 0.03022(11) 0.25224(12)
C1BB C -0.08592(13) 0.02376(13) 0.27197(13)
C2BB C -0.10834(16) 0.07280(18) 0.28654(15)
H1BB H -0.11168(16) 0.09328(18) 0.29776(15)
C3BB C -0.12716(16) 0.06086(17) 0.26221(16)
H2BB H -0.14642(16) 0.07108(17) 0.25318(16)
C4BB C -0.12571(14) 0.00855(14) 0.22503(13)
C5BB C -0.14409(15) -0.02036(15) 0.23354(13)
C6BB C -0.15533(17) -0.04065(17) 0.20695(16)
H3BB H -0.16755(17) -0.06035(17) 0.21134(16)
C7BB C -0.14807(20) -0.03110(18) 0.17340(16)
H4BB H -0.15534(20) -0.04490(18) 0.15570(16)
C8BB C -0.13081(19) -0.00244(16) 0.16620(14)
H5BB H -0.12722(19) 0.00357(16) 0.14366(14)
C9BB C -0.11831(17) 0.01823(14) 0.19180(14)
C10BB C -0.09913(18) 0.05045(17) 0.18324(16)
H6BB H -0.08768(18) 0.05847(17) 0.20381(16)
C11BB C -0.1233(2) 0.0784(2) 0.1709(3)
H7BB H -0.1406(15) 0.0821(12) 0.1876(10)
H8BB H -0.1335(9) 0.0716(16) 0.1499(11)
H9BB H -0.1108(6) 0.0990(4) 0.168(2)
C12BB C -0.0717(2) 0.0440(2) 0.15536(18)
H10BB H -0.0826(17) 0.0416(2) 0.1337(3)
H11BB H -0.0595(9) 0.0236(12) 0.1606(9)
H12BB H -0.0562(8) 0.0628(10) 0.1547(12)
C13BB C -0.15384(19) -0.02961(17) 0.26950(16)
H13BB H -0.14072(19) -0.01521(17) 0.28495(16)
C14BB C -0.1916(3) -0.0224(2) 0.2755(2)
H14BB H -0.2049(14) -0.0348(2) 0.2593(12)
H15BB H -0.1958(3) 0.0015(4) 0.2729(17)
H16BB H -0.1977(17) -0.0293(5) 0.2980(7)
C15BB C -0.1457(2) -0.0667(2) 0.2779(2)
H17BB H -0.1223(5) -0.0712(5) 0.2729(17)
H18BB H -0.1599(2) -0.0813(13) 0.2645(13)
H19BB H -0.1499(5) -0.0707(17) 0.3015(4)
C16BB C -0.05772(18) 0.05366(16) 0.31907(15)
H20BB H -0.05670(18) 0.07714(120) 0.3264(4)
H21BB H -0.0356(12) 0.0478(4) 0.3101(3)
C17BB C -0.06575(20) 0.03130(16) 0.34900(15)
C18BB C -0.0485(4) 0.0161(3) 0.4039(2)
H22BB H -0.0570(7) 0.0326(40) 0.4200(12)
H23BB H -0.0284(30) 0.006(1) 0.4126(19)
H24BB H -0.066(3) -0.001(3) 0.4003(8)
O3O O 0.48017(17) -0.01983(17) -0.01983(17)
O3P O 0.51983(17) 0.01983(17) -0.01983(17)
O3Q O 0.51983(17) -0.01983(17) 0.01983(17)
O4G O 0.1032(4) 0.1431(6) 0.1108(4)
O4H O 0.1108(4) 0.1032(6) 0.1431(4)
#END

data_CSD_CIF_XIFDAR01
_audit_creation_date 2008-01-08
_audit_creation_method CSD-ConQuest-V1
_database_code_CSD XIFDAR01
_database_code_depnum_ccdc_archive 'CCDC 667134'
_chemical_formula_sum 'C12 H36 F4 Ga4 K4'
_chemical_formula_moiety
;
C12 H36 F4 Ga4 K4
;
_journal_coeditor_code "IUCr SF3049"
_journal_coden_Cambridge 1370
_journal_volume 63
_journal_year 2007
_journal_page_first m2690
_journal_name_full 'Acta Crystallogr.,Sect.E:Struct.Rep.Online '
loop_
_publ_author_name
"H.Krautscheid"
"O.Kluge"
_chemical_name_systematic
;
tetrakis(\m~4~-Fluoro)-dodecamethyl-tetra-gallium-tetra-potassium
;
_cell_volume   5601.817
_exptl_crystal_colour 'colorless'
_exptl_crystal_density_diffrn 1.64
_exptl_special_details
;
isostructural with K4(OSiMe3)4

;
_exptl_crystal_description 'block'
_diffrn_ambient_temperature 295
#These two values have been output from a single CSD field.
_refine_ls_R_factor_gt 0.0137
_refine_ls_wR_factor_gt 0.0137
loop_
_citation_database_id_CSD
_citation_special_details
XIFDAR "is reinterpreted by this entry"
_symmetry_cell_setting cubic
_symmetry_space_group_name_H-M 'F -4 3 c'
_symmetry_Int_Tables_number 219
loop_
_symmetry_equiv_pos_site_id
_symmetry_equiv_pos_as_xyz
1 x,y,z
2 -x,-y,z
3 -x,y,-z
4 x,-y,-z
5 z,x,y
6 z,-x,-y
7 -z,-x,y
8 -z,x,-y
9 y,z,x
10 -y,z,-x
11 y,-z,-x
12 -y,-z,x
13 1/2+y,1/2+x,1/2+z
14 1/2-y,1/2-x,1/2+z
15 1/2+y,1/2-x,1/2-z
16 1/2-y,1/2+x,1/2-z
17 1/2+x,1/2+z,1/2+y
18 1/2-x,1/2+z,1/2-y
19 1/2-x,1/2-z,1/2+y
20 1/2+x,1/2-z,1/2-y
21 1/2+z,1/2+y,1/2+x
22 1/2+z,1/2-y,1/2-x
23 1/2-z,1/2+y,1/2-x
24 1/2-z,1/2-y,1/2+x
25 x,1/2+y,1/2+z
26 -x,1/2-y,1/2+z
27 -x,1/2+y,1/2-z
28 x,1/2-y,1/2-z
29 z,1/2+x,1/2+y
30 z,1/2-x,1/2-y
31 -z,1/2-x,1/2+y
32 -z,1/2+x,1/2-y
33 y,1/2+z,1/2+x
34 -y,1/2+z,1/2-x
35 y,1/2-z,1/2-x
36 -y,1/2-z,1/2+x
37 1/2+y,x,z
38 1/2-y,-x,z
39 1/2+y,-x,-z
40 1/2-y,x,-z
41 1/2+x,z,y
42 1/2-x,z,-y
43 1/2-x,-z,y
44 1/2+x,-z,-y
45 1/2+z,y,x
46 1/2+z,-y,-x
47 1/2-z,y,-x
48 1/2-z,-y,x
49 1/2+x,y,1/2+z
50 1/2-x,-y,1/2+z
51 1/2-x,y,1/2-z
52 1/2+x,-y,1/2-z
53 1/2+z,x,1/2+y
54 1/2+z,-x,1/2-y
55 1/2-z,-x,1/2+y
56 1/2-z,x,1/2-y
57 1/2+y,z,1/2+x
58 1/2-y,z,1/2-x
59 1/2+y,-z,1/2-x
60 1/2-y,-z,1/2+x
61 y,1/2+x,z
62 -y,1/2-x,z
63 y,1/2-x,-z
64 -y,1/2+x,-z
65 x,1/2+z,y
66 -x,1/2+z,-y
67 -x,1/2-z,y
68 x,1/2-z,-y
69 z,1/2+y,x
70 z,1/2-y,-x
71 -z,1/2+y,-x
72 -z,1/2-y,x
73 1/2+x,1/2+y,z
74 1/2-x,1/2-y,z
75 1/2-x,1/2+y,-z
76 1/2+x,1/2-y,-z
77 1/2+z,1/2+x,y
78 1/2+z,1/2-x,-y
79 1/2-z,1/2-x,y
80 1/2-z,1/2+x,-y
81 1/2+y,1/2+z,x
82 1/2-y,1/2+z,-x
83 1/2+y,1/2-z,-x
84 1/2-y,1/2-z,x
85 y,x,1/2+z
86 -y,-x,1/2+z
87 y,-x,1/2-z
88 -y,x,1/2-z
89 x,z,1/2+y
90 -x,z,1/2-y
91 -x,-z,1/2+y
92 x,-z,1/2-y
93 z,y,1/2+x
94 z,-y,1/2-x
95 -z,y,1/2-x
96 -z,-y,1/2+x
_cell_length_a 17.760(2)
_cell_length_b 17.760(2)
_cell_length_c 17.760(2)
_cell_angle_alpha 90
_cell_angle_beta 90
_cell_angle_gamma 90
_cell_formula_units_Z 8
loop_
_atom_type_symbol
_atom_type_radius_bond
C 0.68
H 0.23
F 0.64
Ga 1.22
K 1.69
loop_
_atom_site_label
_atom_site_type_symbol
_atom_site_fract_x
_atom_site_fract_y
_atom_site_fract_z
K1 K 0.57967(2) 0.57967(2) 0.42033(2)
F1 F 0.56874(6) 0.56874(6) 0.56874(6)
Ga1 Ga 0.632228(10) 0.632228(10) 0.632228(10)
C1 C 0.62937(17) 0.58083(14) 0.73121(12)
H1 H 0.57840 0.56720 0.74300
H2 H 0.64840 0.61410 0.76930
H3 H 0.65990 0.53630 0.72930
K1B K 0.42033(2) 0.57967(2) 0.57967(2)
K1C K 0.57967(2) 0.42033(2) 0.57967(2)
K1A K 0.42033(2) 0.42033(2) 0.42033(2)
F1B F 0.43126(6) 0.56874(6) 0.43126(6)
F1C F 0.56874(6) 0.43126(6) 0.43126(6)
F1A F 0.43126(6) 0.43126(6) 0.56874(6)
Ga1C Ga 0.632228(10) 0.367772(10) 0.367772(10)
Ga1B Ga 0.367772(10) 0.632228(10) 0.367772(10)
Ga1A Ga 0.367772(10) 0.367772(10) 0.632228(10)
C1C C 0.62937(17) 0.41917(14) 0.26879(12)
C1E C 0.73121(17) 0.37063(14) 0.41917(12)
C1J C 0.58083(17) 0.26879(14) 0.37063(12)
C1B C 0.37063(17) 0.58083(14) 0.26879(12)
C1G C 0.26879(17) 0.62937(14) 0.41917(12)
C1I C 0.41917(17) 0.73121(14) 0.37063(12)
C1A C 0.37063(17) 0.41917(14) 0.73121(12)
C1F C 0.26879(17) 0.37063(14) 0.58083(12)
C1K C 0.41917(17) 0.26879(14) 0.62937(12)
C1D C 0.73121(17) 0.62937(14) 0.58083(12)
C1H C 0.58083(17) 0.73121(14) 0.62937(12)
H1C H 0.57840 0.43280 0.25700
H1E H 0.74300 0.42160 0.43280
H1J H 0.56720 0.25700 0.42160
H1B H 0.42160 0.56720 0.25700
H1G H 0.25700 0.57840 0.43280
H1I H 0.43280 0.74300 0.42160
H1A H 0.42160 0.43280 0.74300
H1F H 0.25700 0.42160 0.56720
H1K H 0.43280 0.25700 0.57840
H1D H 0.74300 0.57840 0.56720
H1H H 0.56720 0.74300 0.57840
H2C H 0.64840 0.38590 0.23070
H2E H 0.76930 0.35160 0.38590
H2J H 0.61410 0.23070 0.35160
H2B H 0.35160 0.61410 0.23070
H2G H 0.23070 0.64840 0.38590
H2I H 0.38590 0.76930 0.35160
H2A H 0.35160 0.38590 0.76930
H2F H 0.23070 0.35160 0.61410
H2K H 0.38590 0.23070 0.64840
H2D H 0.76930 0.64840 0.61410
H2H H 0.61410 0.76930 0.64840
H3C H 0.65990 0.46370 0.27070
H3E H 0.72930 0.34010 0.46370
H3J H 0.53630 0.27070 0.34010
H3B H 0.34010 0.53630 0.27070
H3G H 0.27070 0.65990 0.46370
H3I H 0.46370 0.72930 0.34010
H3A H 0.34010 0.46370 0.72930
H3F H 0.27070 0.34010 0.53630
H3K H 0.46370 0.27070 0.65990
H3D H 0.72930 0.65990 0.53630
H3H H 0.53630 0.72930 0.65990
#END

data_CSD_CIF_ZETFUZ
_audit_creation_date 1996-06-03
_audit_creation_method CSD-ConQuest-V1
_database_code_CSD ZETFUZ
_chemical_formula_sum 'C72 H72 Cd9 Cl4 O6 S13'
_chemical_formula_moiety
;
C72 H60 Cd8 Cl4 S13 2-,H12 Cd1 O6 2+
;
_journal_coden_Cambridge 603
_journal_volume 14
_journal_year 1995
_journal_page_first 399
_journal_name_full 'Jiegou Huaxue(Chin.)(Chin.J.Struct.Chem.) '
loop_
_publ_author_name
"Tang Ka-Luo"
"Jin Xiang-Lin"
"Jia Shao-Juan"
"Tang You-Qi"
_chemical_name_systematic
;
Hexa-aqua-cadmium 
(\m~4~-sulfido)-dodecakis(\m~2~-phenylthiolato)-tetrachloro-octa-cadmium
;
_cell_volume  21017.721
_diffrn_ambient_temperature ?
_diffrn_special_details
;
The study was carried out at room temperature,in the range 283-303K

;
#These two values have been output from a single CSD field.
_refine_ls_R_factor_gt 0.0499
_refine_ls_wR_factor_gt 0.0499
_symmetry_cell_setting cubic
_symmetry_space_group_name_H-M 'F -4 3 c'
_symmetry_Int_Tables_number 219
loop_
_symmetry_equiv_pos_site_id
_symmetry_equiv_pos_as_xyz
1 x,y,z
2 y,-x,1/2-z
3 x,-y,-z
4 z,x,y
5 -x,-y,z
6 -y,-x,1/2+z
7 x,-z,1/2-y
8 -y,x,1/2-z
9 -x,y,-z
10 -z,-x,y
11 y,x,1/2+z
12 -x,z,1/2-y
13 z,-x,-y
14 x,z,1/2+y
15 -z,x,-y
16 -x,-z,1/2+y
17 y,z,x
18 1/2+z,-y,-x
19 1/2-z,-y,x
20 y,-z,-x
21 1/2+z,y,x
22 -y,z,-x
23 -y,-z,x
24 1/2-z,y,-x
25 x,1/2+y,1/2+z
26 y,1/2-x,-z
27 x,1/2-y,1/2-z
28 z,1/2+x,1/2+y
29 -x,1/2-y,1/2+z
30 -y,1/2-x,z
31 x,1/2-z,-y
32 -y,1/2+x,-z
33 -x,1/2+y,1/2-z
34 -z,1/2-x,1/2+y
35 y,1/2+x,z
36 -x,1/2+z,-y
37 z,1/2-x,1/2-y
38 x,1/2+z,y
39 -z,1/2+x,1/2-y
40 -x,1/2-z,y
41 y,1/2+z,1/2+x
42 1/2+z,1/2-y,1/2-x
43 1/2-z,1/2-y,1/2+x
44 y,1/2-z,1/2-x
45 1/2+z,1/2+y,1/2+x
46 -y,1/2+z,1/2-x
47 -y,1/2-z,1/2+x
48 1/2-z,1/2+y,1/2-x
49 1/2+x,y,1/2+z
50 1/2+y,-x,-z
51 1/2+x,-y,1/2-z
52 1/2+z,x,1/2+y
53 1/2-x,-y,1/2+z
54 1/2-y,-x,z
55 1/2+x,-z,-y
56 1/2-y,x,-z
57 1/2-x,y,1/2-z
58 1/2-z,-x,1/2+y
59 1/2+y,x,z
60 1/2-x,z,-y
61 1/2+z,-x,1/2-y
62 1/2+x,z,y
63 1/2-z,x,1/2-y
64 1/2-x,-z,y
65 1/2+y,z,1/2+x
66 z,-y,1/2-x
67 -z,-y,1/2+x
68 1/2+y,-z,1/2-x
69 z,y,1/2+x
70 1/2-y,z,1/2-x
71 1/2-y,-z,1/2+x
72 -z,y,1/2-x
73 1/2+x,1/2+y,z
74 1/2+y,1/2-x,1/2-z
75 1/2+x,1/2-y,-z
76 1/2+z,1/2+x,y
77 1/2-x,1/2-y,z
78 1/2-y,1/2-x,1/2+z
79 1/2+x,1/2-z,1/2-y
80 1/2-y,1/2+x,1/2-z
81 1/2-x,1/2+y,-z
82 1/2-z,1/2-x,y
83 1/2+y,1/2+x,1/2+z
84 1/2-x,1/2+z,1/2-y
85 1/2+z,1/2-x,-y
86 1/2+x,1/2+z,1/2+y
87 1/2-z,1/2+x,-y
88 1/2-x,1/2-z,1/2+y
89 1/2+y,1/2+z,x
90 z,1/2-y,-x
91 -z,1/2-y,x
92 1/2+y,1/2-z,-x
93 z,1/2+y,x
94 1/2-y,1/2+z,-x
95 1/2-y,1/2-z,x
96 -z,1/2+y,-x
_cell_length_a 27.597(5)
_cell_length_b 27.597(5)
_cell_length_c 27.597(5)
_cell_angle_alpha 90
_cell_angle_beta 90
_cell_angle_gamma 90
_cell_formula_units_Z 8
loop_
_atom_type_symbol
_atom_type_radius_bond
C 0.68
Cd 1.69
Cl 0.99
O 0.68
S 1.02
loop_
_atom_site_label
_atom_site_type_symbol
_atom_site_fract_x
_atom_site_fract_y
_atom_site_fract_z
Cd1 Cd 0.0526(1) 0.0526(1) 0.0526(1)
Cd2 Cd -0.0869(1) 0.0869(1) 0.0869(1)
Cd3 Cd 0.25000 0.25000 0.25000
S1 S 0.00000 0.00000 0.00000
S2 S -0.0008(2) 0.0916(1) 0.1162(1)
Cl1 Cl -0.1374(2) 0.1374(2) 0.1374(2)
C1 C 0.0184(4) 0.1519(5) 0.1132(5)
C2 C 0.0609(6) 0.1644(7) 0.1375(7)
C3 C 0.0760(8) 0.2128(6) 0.1381(8)
C4 C 0.0502(8) 0.2488(6) 0.1175(10)
C5 C 0.0083(10) 0.2363(7) 0.0933(10)
C6 C -0.0082(8) 0.1886(5) 0.0906(8)
O1 O 0.25000 0.1703(11) 0.25000
Cd1B Cd 0.0526(1) -0.0526(1) -0.0526(1)
S2B S -0.0008(2) -0.0916(1) -0.1162(1)
Cd2B Cd -0.0869(1) -0.0869(1) -0.0869(1)
S2N S -0.1162(2) -0.0008(1) -0.0916(1)
Cd1N Cd -0.0526(1) 0.0526(1) -0.0526(1)
Cd1D Cd -0.0526(1) -0.0526(1) 0.0526(1)
S2D S 0.0008(2) -0.0916(1) 0.1162(1)
Cd2D Cd 0.0869(1) -0.0869(1) 0.0869(1)
S2C S 0.1162(2) -0.0008(1) 0.0916(1)
S2I S -0.1162(2) 0.0008(1) 0.0916(1)
S2V S -0.0916(2) -0.1162(1) -0.0008(1)
Cl1B Cl -0.1374(2) -0.1374(2) -0.1374(2)
C1V C -0.1519(4) -0.1132(5) 0.0184(5)
C2V C -0.1644(6) -0.1375(7) 0.0609(7)
C3V C -0.2128(8) -0.1381(6) 0.0760(8)
C4V C -0.2488(8) -0.1175(6) 0.0502(10)
C5V C -0.2363(10) -0.0933(7) 0.0083(10)
C6V C -0.1886(8) -0.0906(5) -0.0082(8)
C1I C -0.1132(4) -0.0184(5) 0.1519(5)
C2I C -0.1375(6) -0.0609(7) 0.1644(7)
C3I C -0.1381(8) -0.0760(6) 0.2128(8)
C4I C -0.1175(8) -0.0502(6) 0.2488(10)
C5I C -0.0933(10) -0.0083(7) 0.2363(10)
C6I C -0.0906(8) 0.0082(5) 0.1886(8)
S2U S -0.0916(2) 0.1162(1) 0.0008(1)
S2H S 0.0008(2) 0.0916(1) -0.1162(1)
Cd2H Cd 0.0869(1) 0.0869(1) -0.0869(1)
S2L S 0.1162(2) 0.0008(1) -0.0916(1)
S2S S 0.0916(2) -0.1162(1) 0.0008(1)
Cl1D Cl 0.1374(2) -0.1374(2) 0.1374(2)
C1S C 0.1519(4) -0.1132(5) -0.0184(5)
C2S C 0.1644(6) -0.1375(7) -0.0609(7)
C3S C 0.2128(8) -0.1381(6) -0.0760(8)
C4S C 0.2488(8) -0.1175(6) -0.0502(10)
C5S C 0.2363(10) -0.0933(7) -0.0083(10)
C6S C 0.1886(8) -0.0906(5) 0.0082(8)
C1L C 0.1132(4) -0.0184(5) -0.1519(5)
C2L C 0.1375(6) -0.0609(7) -0.1644(7)
C3L C 0.1381(8) -0.0760(6) -0.2128(8)
C4L C 0.1175(8) -0.0502(6) -0.2488(10)
C5L C 0.0933(10) -0.0083(7) -0.2363(10)
C6L C 0.0906(8) 0.0082(5) -0.1886(8)
S2P S 0.0916(2) 0.1162(1) -0.0008(1)
C1P C 0.1519(4) 0.1132(5) 0.0184(5)
C2P C 0.1644(6) 0.1375(7) 0.0609(7)
C3P C 0.2128(8) 0.1381(6) 0.0760(8)
C4P C 0.2488(8) 0.1175(6) 0.0502(10)
C5P C 0.2363(10) 0.0933(7) 0.0083(10)
C6P C 0.1886(8) 0.0906(5) -0.0082(8)
Cl1H Cl 0.1374(2) 0.1374(2) -0.1374(2)
C1H C -0.0184(4) 0.1519(5) -0.1132(5)
C2H C -0.0609(6) 0.1644(7) -0.1375(7)
C3H C -0.0760(8) 0.2128(6) -0.1381(8)
C4H C -0.0502(8) 0.2488(6) -0.1175(10)
C5H C -0.0083(10) 0.2363(7) -0.0933(10)
C6H C 0.0082(8) 0.1886(5) -0.0906(8)
C1U C -0.1519(4) 0.1132(5) -0.0184(5)
C2U C -0.1644(6) 0.1375(7) -0.0609(7)
C3U C -0.2128(8) 0.1381(6) -0.0760(8)
C4U C -0.2488(8) 0.1175(6) -0.0502(10)
C5U C -0.2363(10) 0.0933(7) -0.0083(10)
C6U C -0.1886(8) 0.0906(5) 0.0082(8)
C1C C 0.1132(4) 0.0184(5) 0.1519(5)
C2C C 0.1375(6) 0.0609(7) 0.1644(7)
C3C C 0.1381(8) 0.0760(6) 0.2128(8)
C4C C 0.1175(8) 0.0502(6) 0.2488(10)
C5C C 0.0933(10) 0.0083(7) 0.2363(10)
C6C C 0.0906(8) -0.0082(5) 0.1886(8)
C1D C -0.0184(4) -0.1519(5) 0.1132(5)
C2D C -0.0609(6) -0.1644(7) 0.1375(7)
C3D C -0.0760(8) -0.2128(6) 0.1381(8)
C4D C -0.0502(8) -0.2488(6) 0.1175(10)
C5D C -0.0083(10) -0.2363(7) 0.0933(10)
C6D C 0.0082(8) -0.1886(5) 0.0906(8)
C1N C -0.1132(4) 0.0184(5) -0.1519(5)
C2N C -0.1375(6) 0.0609(7) -0.1644(7)
C3N C -0.1381(8) 0.0760(6) -0.2128(8)
C4N C -0.1175(8) 0.0502(6) -0.2488(10)
C5N C -0.0933(10) 0.0083(7) -0.2363(10)
C6N C -0.0906(8) -0.0082(5) -0.1886(8)
C1B C 0.0184(4) -0.1519(5) -0.1132(5)
C2B C 0.0609(6) -0.1644(7) -0.1375(7)
C3B C 0.0760(8) -0.2128(6) -0.1381(8)
C4B C 0.0502(8) -0.2488(6) -0.1175(10)
C5B C 0.0083(10) -0.2363(7) -0.0933(10)
C6B C -0.0082(8) -0.1886(5) -0.0906(8)
O1C O 0.25000 0.2500(11) 0.17030
O1P O 0.17030 0.2500(11) 0.25000
O1Z O 0.25000 0.3297(11) 0.25000
O1JA O 0.25000 0.2500(11) 0.32970
O1QB O 0.32970 0.2500(11) 0.25000
#END

data_CSD_CIF_ZAXSIE
_audit_creation_date 2022-03-23
_audit_creation_method CSD-ConQuest-V1
_database_code_CSD ZAXSIE
_database_code_depnum_ccdc_archive 'CCDC 2161477'
_chemical_formula_sum 'Br4 Cl12 Si6'
_chemical_formula_moiety
;
Cl12 Si5,Br4 Si1
;
_journal_coden_Cambridge 1078
_journal_year 2022
_journal_name_full 'CSD Communication(Private Communication) '
loop_
_publ_author_name
"M.Berger"
"M.Bolte"
_chemical_name_systematic
;
1,1,1,3,3,3-hexachloro-2,2-bis(trichlorosilyl)trisilane tetrabromosilane
;
_cell_volume   5394.179
_exptl_crystal_colour 'colorless'
_exptl_crystal_density_diffrn 2.25
_exptl_crystal_description 'block'
_diffrn_ambient_temperature 173
#These two values have been output from a single CSD field.
_refine_ls_R_factor_gt 0.0409
_refine_ls_wR_factor_gt 0.0409
_symmetry_cell_setting cubic
_symmetry_space_group_name_H-M 'F -4 3 c'
_symmetry_Int_Tables_number 219
loop_
_symmetry_equiv_pos_site_id
_symmetry_equiv_pos_as_xyz
1 x,y,z
2 -x,-y,z
3 -x,y,-z
4 x,-y,-z
5 z,x,y
6 z,-x,-y
7 -z,-x,y
8 -z,x,-y
9 y,z,x
10 -y,z,-x
11 y,-z,-x
12 -y,-z,x
13 1/2+y,1/2+x,1/2+z
14 1/2-y,1/2-x,1/2+z
15 1/2+y,1/2-x,1/2-z
16 1/2-y,1/2+x,1/2-z
17 1/2+x,1/2+z,1/2+y
18 1/2-x,1/2+z,1/2-y
19 1/2-x,1/2-z,1/2+y
20 1/2+x,1/2-z,1/2-y
21 1/2+z,1/2+y,1/2+x
22 1/2+z,1/2-y,1/2-x
23 1/2-z,1/2+y,1/2-x
24 1/2-z,1/2-y,1/2+x
25 x,1/2+y,1/2+z
26 -x,1/2-y,1/2+z
27 -x,1/2+y,1/2-z
28 x,1/2-y,1/2-z
29 z,1/2+x,1/2+y
30 z,1/2-x,1/2-y
31 -z,1/2-x,1/2+y
32 -z,1/2+x,1/2-y
33 y,1/2+z,1/2+x
34 -y,1/2+z,1/2-x
35 y,1/2-z,1/2-x
36 -y,1/2-z,1/2+x
37 1/2+y,x,z
38 1/2-y,-x,z
39 1/2+y,-x,-z
40 1/2-y,x,-z
41 1/2+x,z,y
42 1/2-x,z,-y
43 1/2-x,-z,y
44 1/2+x,-z,-y
45 1/2+z,y,x
46 1/2+z,-y,-x
47 1/2-z,y,-x
48 1/2-z,-y,x
49 1/2+x,y,1/2+z
50 1/2-x,-y,1/2+z
51 1/2-x,y,1/2-z
52 1/2+x,-y,1/2-z
53 1/2+z,x,1/2+y
54 1/2+z,-x,1/2-y
55 1/2-z,-x,1/2+y
56 1/2-z,x,1/2-y
57 1/2+y,z,1/2+x
58 1/2-y,z,1/2-x
59 1/2+y,-z,1/2-x
60 1/2-y,-z,1/2+x
61 y,1/2+x,z
62 -y,1/2-x,z
63 y,1/2-x,-z
64 -y,1/2+x,-z
65 x,1/2+z,y
66 -x,1/2+z,-y
67 -x,1/2-z,y
68 x,1/2-z,-y
69 z,1/2+y,x
70 z,1/2-y,-x
71 -z,1/2+y,-x
72 -z,1/2-y,x
73 1/2+x,1/2+y,z
74 1/2-x,1/2-y,z
75 1/2-x,1/2+y,-z
76 1/2+x,1/2-y,-z
77 1/2+z,1/2+x,y
78 1/2+z,1/2-x,-y
79 1/2-z,1/2-x,y
80 1/2-z,1/2+x,-y
81 1/2+y,1/2+z,x
82 1/2-y,1/2+z,-x
83 1/2+y,1/2-z,-x
84 1/2-y,1/2-z,x
85 y,x,1/2+z
86 -y,-x,1/2+z
87 y,-x,1/2-z
88 -y,x,1/2-z
89 x,z,1/2+y
90 -x,z,1/2-y
91 -x,-z,1/2+y
92 x,-z,1/2-y
93 z,y,1/2+x
94 z,-y,1/2-x
95 -z,y,1/2-x
96 -z,-y,1/2+x
_cell_length_a 17.5378(19)
_cell_length_b 17.5378(19)
_cell_length_c 17.5378(19)
_cell_angle_alpha 90
_cell_angle_beta 90
_cell_angle_gamma 90
_cell_formula_units_Z 8
loop_
_atom_type_symbol
_atom_type_radius_bond
Br 1.21
Cl 0.99
Si 1.20
loop_
_atom_site_label
_atom_site_type_symbol
_atom_site_fract_x
_atom_site_fract_y
_atom_site_fract_z
Cl1 Cl 0.73293(9) 0.58043(8) 0.86352(10)
Si1 Si 0.75000 0.75000 0.75000
Si2 Si 0.67321(8) 0.67321(8) 0.82679(8)
Br1 Br 0.57054(5) 0.42946(5) 0.92946(5)
Si3 Si 0.50000 0.50000 1.00000
Cl1D Cl 0.86352(9) 0.73293(8) 0.58043(10)
Si2D Si 0.82679(8) 0.67321(8) 0.67321(8)
Cl1H Cl 0.58043(9) 0.86352(8) 0.73293(10)
Si2H Si 0.67321(8) 0.82679(8) 0.67321(8)
Cl1AA Cl 0.73293(9) 0.91957(8) 0.63648(10)
Cl1CA Cl 0.86352(9) 0.76707(8) 0.91957(10)
Si2CA Si 0.82679(8) 0.82679(8) 0.82679(8)
Cl1HA Cl 0.58043(9) 0.63648(8) 0.76707(10)
Cl1XA Cl 0.76707(9) 0.58043(8) 0.63648(10)
Cl1CB Cl 0.63648(9) 0.73293(8) 0.91957(10)
Cl1EB Cl 0.91957(9) 0.86352(8) 0.76707(10)
Cl1UB Cl 0.76707(9) 0.91957(8) 0.86352(10)
Cl1ZB Cl 0.63648(9) 0.76707(8) 0.58043(10)
Cl1EC Cl 0.91957(9) 0.63648(8) 0.73293(10)
Br1A Br 0.42946(5) 0.57054(5) 0.92946(5)
Br1B Br 0.42946(5) 0.42946(5) 1.07054(5)
Br1C Br 0.57054(5) 0.57054(5) 1.07054(5)
#END
