
#######################################################################
#
#                 Cambridge Crystallographic Data Centre
#                                CCDC
#
#######################################################################
#
# If this CIF has been generated from an entry in the Cambridge
# Structural Database, then it will include bibliographic, chemical,
# crystal, experimental, refinement or atomic coordinate data resulting
# from the CCDC's data processing and validation procedures.
#
#######################################################################

data_CSD_CIF_HISMUT
_audit_creation_date 2013-11-19
_audit_creation_method CSD-ConQuest-V1
_database_code_CSD HISMUT
_database_code_depnum_ccdc_archive 'CCDC 953685'
_chemical_formula_sum 'C112 H72 N12 O24 Zn10'
_chemical_formula_moiety
;
C112 H72 N12 O24 Zn10
;
_journal_coden_Cambridge 179
_journal_volume 52
_journal_year 2013
_journal_page_first 13414
_journal_name_full 'Angew.Chem.,Int.Ed. '
loop_
_publ_author_name
"K.Sokolowski"
"W.Bury"
"I.Justyniak"
"D.Fairen-Jimenez"
"K.Soltys"
"D.Prochowicz"
"Sihai Yang"
"M.Schroder"
"J.Lewinski"
_chemical_name_systematic
;
tetrakis(\m~6~-Carbonato)-dodecakis(\m~2~-quinolin-8-olato)-deca-zinc
;
_cell_volume  31569.477
_exptl_crystal_colour 'yellow'
_exptl_crystal_density_diffrn 1.104
_exptl_crystal_description 'cubic'
_diffrn_ambient_temperature 100
#These two values have been output from a single CSD field.
_refine_ls_R_factor_gt 0.0373
_refine_ls_wR_factor_gt 0.0373
_symmetry_cell_setting cubic
_symmetry_space_group_name_H-M 'F d -3'
_symmetry_Int_Tables_number 203
loop_
_symmetry_equiv_pos_site_id
_symmetry_equiv_pos_as_xyz
1 x,y,z
2 1/4-z,x,1/4-y
3 y,1/4-z,1/4-x
4 x,1/4-y,1/4-z
5 1/4-x,1/4-y,z
6 z,1/4-x,1/4-y
7 x,1/2+y,1/2+z
8 1/4-z,1/2+x,3/4-y
9 y,3/4-z,3/4-x
10 x,3/4-y,3/4-z
11 1/4-x,3/4-y,1/2+z
12 z,3/4-x,3/4-y
13 1/2+x,y,1/2+z
14 3/4-z,x,3/4-y
15 1/2+y,1/4-z,3/4-x
16 1/2+x,1/4-y,3/4-z
17 3/4-x,1/4-y,1/2+z
18 1/2+z,1/4-x,3/4-y
19 1/2+x,1/2+y,z
20 3/4-z,1/2+x,1/4-y
21 1/2+y,3/4-z,1/4-x
22 1/2+x,3/4-y,1/4-z
23 3/4-x,3/4-y,z
24 1/2+z,3/4-x,1/4-y
25 3/4-y,z,3/4-x
26 3/4-z,3/4-x,y
27 3/4-y,3/4-z,x
28 3/4-x,y,3/4-z
29 y,z,x
30 z,x,y
31 3/4-y,1/2+z,1/4-x
32 3/4-z,1/4-x,1/2+y
33 3/4-y,1/4-z,1/2+x
34 3/4-x,1/2+y,1/4-z
35 y,1/2+z,1/2+x
36 z,1/2+x,1/2+y
37 1/4-y,z,1/4-x
38 1/4-z,3/4-x,1/2+y
39 1/4-y,3/4-z,1/2+x
40 1/4-x,y,1/4-z
41 1/2+y,z,1/2+x
42 1/2+z,x,1/2+y
43 1/4-y,1/2+z,3/4-x
44 1/4-z,1/4-x,y
45 1/4-y,1/4-z,x
46 1/4-x,1/2+y,3/4-z
47 1/2+y,1/2+z,x
48 1/2+z,1/2+x,y
49 -x,-y,-z
50 -1/4+z,-x,-1/4+y
51 -y,-1/4+z,-1/4+x
52 -x,-1/4+y,-1/4+z
53 -1/4+x,-1/4+y,-z
54 -z,-1/4+x,-1/4+y
55 -x,-1/2-y,-1/2-z
56 -1/4+z,-1/2-x,-3/4+y
57 -y,-3/4+z,-3/4+x
58 -x,-3/4+y,-3/4+z
59 -1/4+x,-3/4+y,-1/2-z
60 -z,-3/4+x,-3/4+y
61 -1/2-x,-y,-1/2-z
62 -3/4+z,-x,-3/4+y
63 -1/2-y,-1/4+z,-3/4+x
64 -1/2-x,-1/4+y,-3/4+z
65 -3/4+x,-1/4+y,-1/2-z
66 -1/2-z,-1/4+x,-3/4+y
67 -1/2-x,-1/2-y,-z
68 -3/4+z,-1/2-x,-1/4+y
69 -1/2-y,-3/4+z,-1/4+x
70 -1/2-x,-3/4+y,-1/4+z
71 -3/4+x,-3/4+y,-z
72 -1/2-z,-3/4+x,-1/4+y
73 -3/4+y,-z,-3/4+x
74 -3/4+z,-3/4+x,-y
75 -3/4+y,-3/4+z,-x
76 -3/4+x,-y,-3/4+z
77 -y,-z,-x
78 -z,-x,-y
79 -3/4+y,-1/2-z,-1/4+x
80 -3/4+z,-1/4+x,-1/2-y
81 -3/4+y,-1/4+z,-1/2-x
82 -3/4+x,-1/2-y,-1/4+z
83 -y,-1/2-z,-1/2-x
84 -z,-1/2-x,-1/2-y
85 -1/4+y,-z,-1/4+x
86 -1/4+z,-3/4+x,-1/2-y
87 -1/4+y,-3/4+z,-1/2-x
88 -1/4+x,-y,-1/4+z
89 -1/2-y,-z,-1/2-x
90 -1/2-z,-x,-1/2-y
91 -1/4+y,-1/2-z,-3/4+x
92 -1/4+z,-1/4+x,-y
93 -1/4+y,-1/4+z,-x
94 -1/4+x,-1/2-y,-3/4+z
95 -1/2-y,-1/2-z,-x
96 -1/2-z,-1/2-x,-y
_cell_length_a 31.6050(7)
_cell_length_b 31.6050(7)
_cell_length_c 31.6050(7)
_cell_angle_alpha 90
_cell_angle_beta 90
_cell_angle_gamma 90
_cell_formula_units_Z 8
loop_
_atom_type_symbol
_atom_type_radius_bond
C 0.68
H 0.23
N 0.68
O 0.68
Zn 1.22
loop_
_atom_site_label
_atom_site_type_symbol
_atom_site_fract_x
_atom_site_fract_y
_atom_site_fract_z
C1 C 0.08530 1.08530 0.16470
C2 C 0.10355(9) 0.98433(8) 0.03835(9)
C3 C 0.08761(9) 0.98187(9) -0.00243(9)
H1 H 0.06350 0.99820 -0.00990
C4 C 0.10657(10) 0.95552(10) -0.03299(10)
H2 H 0.09460 0.95420 -0.06050
C5 C 0.14156(11) 0.93184(11) -0.02433(11)
H3 H 0.15350 0.91410 -0.04550
C6 C 0.15993(11) 0.93389(11) 0.01649(11)
C7 C 0.19682(13) 0.91142(14) 0.02918(13)
H4 H 0.21050 0.89300 0.00970
C8 C 0.21275(13) 0.91596(14) 0.06891(13)
H5 H 0.23730 0.90080 0.07730
C9 C 0.19232(11) 0.94362(11) 0.09749(12)
H6 H 0.20380 0.94710 0.12500
C10 C 0.14120(9) 0.96055(9) 0.04739(9)
O1 O 0.08193(6) 1.05785(6) 0.13501(6)
O2 O 0.08596(6) 1.00625(6) 0.06956(6)
Zn1 Zn 0.06820 1.06820 0.06820
Zn2 Zn 0.12500 1.008593(13) 0.12500
N1 N 0.15774(8) 0.96474(8) 0.08717(8)
O1A O 0.11499(6) 1.08193(6) 0.19215(6)
O1B O 0.05785(6) 1.11499(6) 0.16807(6)
C2A C 0.21165(9) 1.10355(8) 0.26567(9)
C3A C 0.25243(9) 1.08761(9) 0.26813(9)
H1A H 0.25990 1.06350 0.25180
C4A C 0.28299(10) 1.10657(10) 0.29448(10)
H2A H 0.31050 1.09460 0.29580
C5A C 0.27433(11) 1.14156(11) 0.31816(11)
H3A H 0.29550 1.15350 0.33590
C6A C 0.23351(11) 1.15993(11) 0.31611(11)
C7A C 0.22082(13) 1.19682(14) 0.33858(13)
H4A H 0.24030 1.21050 0.35700
C8A C 0.18109(13) 1.21275(14) 0.33404(13)
H5A H 0.17270 1.23730 0.34920
C9A C 0.15251(11) 1.19232(11) 0.30638(12)
H6A H 0.12500 1.20380 0.30290
C10A C 0.20261(9) 1.14120(9) 0.28945(9)
O2A O 0.18044(6) 1.08596(6) 0.24375(6)
Zn1A Zn 0.18180 1.06820 0.18180
Zn2A Zn 0.12500 1.125000(13) 0.24141
N1A N 0.16283(8) 1.15774(8) 0.28526(8)
C2B C -0.01567(9) 1.21165(8) 0.14645(9)
C3B C -0.01813(9) 1.25243(9) 0.16239(9)
H1B H -0.00180 1.25990 0.18650
C4B C -0.04448(10) 1.28299(10) 0.14343(10)
H2B H -0.04580 1.31050 0.15540
C5B C -0.06816(11) 1.27433(11) 0.10844(11)
H3B H -0.08590 1.29550 0.09650
C6B C -0.06611(11) 1.23351(11) 0.09007(11)
C7B C -0.08858(13) 1.22082(14) 0.05318(13)
H4B H -0.10700 1.24030 0.03950
C8B C -0.08404(13) 1.18109(14) 0.03725(13)
H5B H -0.09920 1.17270 0.01270
C9B C -0.05638(11) 1.15251(11) 0.05768(12)
H6B H -0.05290 1.12500 0.04620
C10B C -0.03945(9) 1.20261(9) 0.10880(9)
O2B O 0.00625(6) 1.18044(6) 0.16404(6)
Zn1B Zn 0.06820 1.18180 0.18180
Zn2B Zn 0.00859 1.125000(13) 0.12500
N1B N -0.03526(8) 1.16283(8) 0.09226(8)
C1C C 0.08530 1.16470 0.08530
C2C C 0.10355(9) 1.26567(8) 0.21165(9)
C3C C 0.08761(9) 1.26813(9) 0.25243(9)
H1C H 0.06350 1.25180 0.25990
C4C C 0.10657(10) 1.29448(10) 0.28299(10)
H2C H 0.09460 1.29580 0.31050
C5C C 0.14156(11) 1.31816(11) 0.27433(11)
H3C H 0.15350 1.33590 0.29550
C6C C 0.15993(11) 1.31611(11) 0.23351(11)
C7C C 0.19682(13) 1.33858(14) 0.22082(13)
H4C H 0.21050 1.35700 0.24030
C8C C 0.21275(13) 1.33404(14) 0.18109(13)
H5C H 0.23730 1.34920 0.17270
C9C C 0.19232(11) 1.30638(11) 0.15251(12)
H6C H 0.20380 1.30290 0.12500
C10C C 0.14120(9) 1.28945(9) 0.20261(9)
O1C O 0.08193(6) 1.19215(6) 0.11499(6)
O2C O 0.08596(6) 1.24375(6) 0.18044(6)
Zn2C Zn 0.12500 1.241407(13) 0.12500
N1C N 0.15774(8) 1.28526(8) 0.16283(8)
O1QA O 0.11499(6) 1.16807(6) 0.05785(6)
O1BA O 0.05785(6) 1.13501(6) 0.08193(6)
C1D C 0.16470 1.16470 0.16470
C2D C 0.14645(9) 1.26567(8) 0.03835(9)
C3D C 0.16239(9) 1.26813(9) -0.00243(9)
H1D H 0.18650 1.25180 -0.00990
C4D C 0.14343(10) 1.29448(10) -0.03299(10)
H2D H 0.15540 1.29580 -0.06050
C5D C 0.10844(11) 1.31816(11) -0.02433(11)
H3D H 0.09650 1.33590 -0.04550
C6D C 0.09007(11) 1.31611(11) 0.01649(11)
C7D C 0.05318(13) 1.33858(14) 0.02918(13)
H4D H 0.03950 1.35700 0.00970
C8D C 0.03725(13) 1.33404(14) 0.06891(13)
H5D H 0.01270 1.34920 0.07730
C9D C 0.05768(11) 1.30638(11) 0.09749(12)
H6D H 0.04620 1.30290 0.12500
C10D C 0.10880(9) 1.28945(9) 0.04739(9)
O1D O 0.16807(6) 1.19215(6) 0.13501(6)
O2D O 0.16404(6) 1.24375(6) 0.06956(6)
Zn1D Zn 0.18180 1.18180 0.06820
N1D N 0.09226(8) 1.28526(8) 0.08717(8)
O1E O 0.13501(6) 1.16807(6) 0.19215(6)
O1JA O 0.19215(6) 1.13501(6) 0.16807(6)
C2E C 0.03835(9) 1.14645(8) 0.26567(9)
C3E C -0.00243(9) 1.16239(9) 0.26813(9)
H1E H -0.00990 1.18650 0.25180
C4E C -0.03299(10) 1.14343(10) 0.29448(10)
H2E H -0.06050 1.15540 0.29580
C5E C -0.02433(11) 1.10844(11) 0.31816(11)
H3E H -0.04550 1.09650 0.33590
C6E C 0.01649(11) 1.09007(11) 0.31611(11)
C7E C 0.02918(13) 1.05318(14) 0.33858(13)
H4E H 0.00970 1.03950 0.35700
C8E C 0.06891(13) 1.03725(14) 0.33404(13)
H5E H 0.07730 1.01270 0.34920
C9E C 0.09749(11) 1.05768(11) 0.30638(12)
H6E H 0.12500 1.04620 0.30290
C10E C 0.04739(9) 1.10880(9) 0.28945(9)
O2E O 0.06956(6) 1.16404(6) 0.24375(6)
N1E N 0.08717(8) 1.09226(8) 0.28526(8)
C2BA C -0.01567(9) 1.03835(8) 0.10355(9)
C3BA C -0.01813(9) 0.99757(9) 0.08761(9)
H1BA H -0.00180 0.99010 0.06350
C4BA C -0.04448(10) 0.96701(10) 0.10657(10)
H2BA H -0.04580 0.93950 0.09460
C5BA C -0.06816(11) 0.97567(11) 0.14156(11)
H3BA H -0.08590 0.95450 0.15350
C6BA C -0.06611(11) 1.01649(11) 0.15993(11)
C7BA C -0.08858(13) 1.02918(14) 0.19682(13)
H4BA H -0.10700 1.00970 0.21050
C8BA C -0.08404(13) 1.06891(14) 0.21275(13)
H5BA H -0.09920 1.07730 0.23730
C9BA C -0.05638(11) 1.09749(11) 0.19232(12)
H6BA H -0.05290 1.12500 0.20380
C10BA C -0.03945(9) 1.04739(9) 0.14120(9)
O2BA O 0.00625(6) 1.06956(6) 0.08596(6)
N1BA N -0.03526(8) 1.08717(8) 0.15774(8)
C1CA C 0.16470 1.08530 0.08530
C2CA C 0.03835(9) 1.10355(8) -0.01567(9)
C3CA C -0.00243(9) 1.08761(9) -0.01813(9)
H1CA H -0.00990 1.06350 -0.00180
C4CA C -0.03299(10) 1.10657(10) -0.04448(10)
H2CA H -0.06050 1.09460 -0.04580
C5CA C -0.02433(11) 1.14156(11) -0.06816(11)
H3CA H -0.04550 1.15350 -0.08590
C6CA C 0.01649(11) 1.15993(11) -0.06611(11)
C7CA C 0.02918(13) 1.19682(14) -0.08858(13)
H4CA H 0.00970 1.21050 -0.10700
C8CA C 0.06891(13) 1.21275(14) -0.08404(13)
H5CA H 0.07730 1.23730 -0.09920
C9CA C 0.09749(11) 1.19232(11) -0.05638(12)
H6CA H 0.12500 1.20380 -0.05290
C10CA C 0.04739(9) 1.14120(9) -0.03945(9)
O1CA O 0.13501(6) 1.08193(6) 0.05785(6)
O2CA O 0.06956(6) 1.08596(6) 0.00625(6)
Zn2CA Zn 0.12500 1.125000(13) 0.00859
N1CA N 0.08717(8) 1.15774(8) -0.03526(8)
O1RA O 0.19215(6) 1.11499(6) 0.08193(6)
O1MA O 0.16807(6) 1.05785(6) 0.11499(6)
C2JA C 0.26567(9) 1.03835(8) 0.14645(9)
C3JA C 0.26813(9) 0.99757(9) 0.16239(9)
H1JA H 0.25180 0.99010 0.18650
C4JA C 0.29448(10) 0.96701(10) 0.14343(10)
H2JA H 0.29580 0.93950 0.15540
C5JA C 0.31816(11) 0.97567(11) 0.10844(11)
H3JA H 0.33590 0.95450 0.09650
C6JA C 0.31611(11) 1.01649(11) 0.09007(11)
C7JA C 0.33858(13) 1.02918(14) 0.05318(13)
H4JA H 0.35700 1.00970 0.03950
C8JA C 0.33404(13) 1.06891(14) 0.03725(13)
H5JA H 0.34920 1.07730 0.01270
C9JA C 0.30638(11) 1.09749(11) 0.05768(12)
H6JA H 0.30290 1.12500 0.04620
C10JA C 0.28945(9) 1.04739(9) 0.10880(9)
O2JA O 0.24375(6) 1.06956(6) 0.16404(6)
Zn2JA Zn 0.24141 1.125000(13) 0.12500
N1JA N 0.28526(8) 1.08717(8) 0.09226(8)
C2MA C 0.14645(9) 0.98433(8) 0.21165(9)
C3MA C 0.16239(9) 0.98187(9) 0.25243(9)
H1MA H 0.18650 0.99820 0.25990
C4MA C 0.14343(10) 0.95552(10) 0.28299(10)
H2MA H 0.15540 0.95420 0.31050
C5MA C 0.10844(11) 0.93184(11) 0.27433(11)
H3MA H 0.09650 0.91410 0.29550
C6MA C 0.09007(11) 0.93389(11) 0.23351(11)
C7MA C 0.05318(13) 0.91142(14) 0.22082(13)
H4MA H 0.03950 0.89300 0.24030
C8MA C 0.03725(13) 0.91596(14) 0.18109(13)
H5MA H 0.01270 0.90080 0.17270
C9MA C 0.05768(11) 0.94362(11) 0.15251(12)
H6MA H 0.04620 0.94710 0.12500
C10MA C 0.10880(9) 0.96055(9) 0.20261(9)
O2MA O 0.16404(6) 1.00625(6) 0.18044(6)
N1MA N 0.09226(8) 0.96474(8) 0.16283(8)
C2QA C 0.21165(9) 1.14645(8) -0.01567(9)
C3QA C 0.25243(9) 1.16239(9) -0.01813(9)
H1QA H 0.25990 1.18650 -0.00180
C4QA C 0.28299(10) 1.14343(10) -0.04448(10)
H2QA H 0.31050 1.15540 -0.04580
C5QA C 0.27433(11) 1.10844(11) -0.06816(11)
H3QA H 0.29550 1.09650 -0.08590
C6QA C 0.23351(11) 1.09007(11) -0.06611(11)
C7QA C 0.22082(13) 1.05318(14) -0.08858(13)
H4QA H 0.24030 1.03950 -0.10700
C8QA C 0.18109(13) 1.03725(14) -0.08404(13)
H5QA H 0.17270 1.01270 -0.09920
C9QA C 0.15251(11) 1.05768(11) -0.05638(12)
H6QA H 0.12500 1.04620 -0.05290
C10QA C 0.20261(9) 1.10880(9) -0.03945(9)
O2QA O 0.18044(6) 1.16404(6) 0.00625(6)
N1QA N 0.16283(8) 1.09226(8) -0.03526(8)
C2RA C 0.26567(9) 1.21165(8) 0.10355(9)
C3RA C 0.26813(9) 1.25243(9) 0.08761(9)
H1RA H 0.25180 1.25990 0.06350
C4RA C 0.29448(10) 1.28299(10) 0.10657(10)
H2RA H 0.29580 1.31050 0.09460
C5RA C 0.31816(11) 1.27433(11) 0.14156(11)
H3RA H 0.33590 1.29550 0.15350
C6RA C 0.31611(11) 1.23351(11) 0.15993(11)
C7RA C 0.33858(13) 1.22082(14) 0.19682(13)
H4RA H 0.35700 1.24030 0.21050
C8RA C 0.33404(13) 1.18109(14) 0.21275(13)
H5RA H 0.34920 1.17270 0.23730
C9RA C 0.30638(11) 1.15251(11) 0.19232(12)
H6RA H 0.30290 1.12500 0.20380
C10RA C 0.28945(9) 1.20261(9) 0.14120(9)
O2RA O 0.24375(6) 1.18044(6) 0.08596(6)
N1RA N 0.28526(8) 1.16283(8) 0.15774(8)
#END

data_CSD_CIF_LAZFIC
_audit_creation_date 2006-03-20
_audit_creation_method CSD-ConQuest-V1
_database_code_CSD LAZFIC
_database_code_depnum_ccdc_archive 'CCDC 293203'
_chemical_formula_sum 'C24 H57 I4 O16 Tl1'
_chemical_formula_moiety
;
2(C12 H24 O6),I4 Tl1 1-,3(H2 O1),H3 O1 1+
;
_journal_coden_Cambridge 9
_journal_volume 44
_journal_year 2005
_journal_page_first 9340
_journal_name_full 'Inorg.Chem. '
loop_
_publ_author_name
"F.Rieger"
"A.-V.Mudring"
_chemical_name_systematic
;
Oxonium bis(18-crown-6) tetraiodo-thallium(iii) trihydrate
;
_cell_volume   9771.521
_exptl_crystal_colour 'orange'
_exptl_crystal_density_diffrn 1.786
_exptl_crystal_description 'cube'
_diffrn_ambient_temperature 293
#These two values have been output from a single CSD field.
_refine_ls_R_factor_gt 0.0361
_refine_ls_wR_factor_gt 0.0361
_symmetry_cell_setting cubic
_symmetry_space_group_name_H-M 'F d -3'
_symmetry_Int_Tables_number 203
loop_
_symmetry_equiv_pos_site_id
_symmetry_equiv_pos_as_xyz
1 x,y,z
2 1/4-x,1/4-y,z
3 x,1/4-y,1/4-z
4 1/4-x,y,1/4-z
5 y,z,x
6 1/4-y,1/4-z,x
7 y,1/4-z,1/4-x
8 1/4-y,z,1/4-x
9 z,x,y
10 1/4-z,x,1/4-y
11 1/4-z,1/4-x,y
12 z,1/4-x,1/4-y
13 x,1/2+y,1/2+z
14 y,1/2+z,1/2+x
15 z,1/2+x,1/2+y
16 1/2+x,y,1/2+z
17 1/2+y,z,1/2+x
18 1/2+z,x,1/2+y
19 1/2+x,1/2+y,z
20 1/2+y,1/2+z,x
21 1/2+z,1/2+x,y
22 1/4-x,3/4-y,1/2+z
23 x,3/4-y,3/4-z
24 1/4-x,1/2+y,3/4-z
25 1/4-y,3/4-z,1/2+x
26 y,3/4-z,3/4-x
27 1/4-y,1/2+z,3/4-x
28 1/4-z,1/2+x,3/4-y
29 1/4-z,3/4-x,1/2+y
30 z,3/4-x,3/4-y
31 3/4-x,1/4-y,1/2+z
32 1/2+x,1/4-y,3/4-z
33 3/4-x,y,3/4-z
34 3/4-y,1/4-z,1/2+x
35 1/2+y,1/4-z,3/4-x
36 3/4-y,z,3/4-x
37 3/4-z,x,3/4-y
38 3/4-z,1/4-x,1/2+y
39 1/2+z,1/4-x,3/4-y
40 3/4-x,3/4-y,z
41 1/2+x,3/4-y,1/4-z
42 3/4-x,1/2+y,1/4-z
43 3/4-y,3/4-z,x
44 1/2+y,3/4-z,1/4-x
45 3/4-y,1/2+z,1/4-x
46 3/4-z,1/2+x,1/4-y
47 3/4-z,3/4-x,y
48 1/2+z,3/4-x,1/4-y
49 -x,-y,-z
50 -1/4+x,-1/4+y,-z
51 -x,-1/4+y,-1/4+z
52 -1/4+x,-y,-1/4+z
53 -y,-z,-x
54 -1/4+y,-1/4+z,-x
55 -y,-1/4+z,-1/4+x
56 -1/4+y,-z,-1/4+x
57 -z,-x,-y
58 -1/4+z,-x,-1/4+y
59 -1/4+z,-1/4+x,-y
60 -z,-1/4+x,-1/4+y
61 -x,-1/2-y,-1/2-z
62 -y,-1/2-z,-1/2-x
63 -z,-1/2-x,-1/2-y
64 -1/2-x,-y,-1/2-z
65 -1/2-y,-z,-1/2-x
66 -1/2-z,-x,-1/2-y
67 -1/2-x,-1/2-y,-z
68 -1/2-y,-1/2-z,-x
69 -1/2-z,-1/2-x,-y
70 -1/4+x,-3/4+y,-1/2-z
71 -x,-3/4+y,-3/4+z
72 -1/4+x,-1/2-y,-3/4+z
73 -1/4+y,-3/4+z,-1/2-x
74 -y,-3/4+z,-3/4+x
75 -1/4+y,-1/2-z,-3/4+x
76 -1/4+z,-1/2-x,-3/4+y
77 -1/4+z,-3/4+x,-1/2-y
78 -z,-3/4+x,-3/4+y
79 -3/4+x,-1/4+y,-1/2-z
80 -1/2-x,-1/4+y,-3/4+z
81 -3/4+x,-y,-3/4+z
82 -3/4+y,-1/4+z,-1/2-x
83 -1/2-y,-1/4+z,-3/4+x
84 -3/4+y,-z,-3/4+x
85 -3/4+z,-x,-3/4+y
86 -3/4+z,-1/4+x,-1/2-y
87 -1/2-z,-1/4+x,-3/4+y
88 -3/4+x,-3/4+y,-z
89 -1/2-x,-3/4+y,-1/4+z
90 -3/4+x,-1/2-y,-1/4+z
91 -3/4+y,-3/4+z,-x
92 -1/2-y,-3/4+z,-1/4+x
93 -3/4+y,-1/2-z,-1/4+x
94 -3/4+z,-1/2-x,-1/4+y
95 -3/4+z,-3/4+x,-y
96 -1/2-z,-3/4+x,-1/4+y
_cell_length_a 21.3790(18)
_cell_length_b 21.3790(18)
_cell_length_c 21.3790(18)
_cell_angle_alpha 90
_cell_angle_beta 90
_cell_angle_gamma 90
_cell_formula_units_Z 8
loop_
_atom_type_symbol
_atom_type_radius_bond
C 0.68
H 0.23
I 1.40
O 0.68
Tl 1.55
loop_
_atom_site_label
_atom_site_type_symbol
_atom_site_fract_x
_atom_site_fract_y
_atom_site_fract_z
Tl1 Tl 0.12500 0.12500 0.12500
I1 I 0.05044(2) 0.05044(2) 0.05044(2)
O1 O 0.4613(5) 0.4613(5) 0.4613(5)
O2 O 0.4155(4) 0.0978(3) -0.0315(3)
C1 C 0.3819(6) 0.1200(5) 0.0205(5)
H1 H 0.34950 0.14870 0.00690
H2 H 0.40970 0.14210 0.04870
C2 C 0.4464(5) 0.1471(5) -0.0650(6)
H3 H 0.47630 0.16800 -0.03810
H4 H 0.41620 0.17770 -0.07940
I1A I 0.19956(2) 0.19956(2) 0.05044(2)
I1B I 0.05044(2) 0.19956(2) 0.19956(2)
I1C I 0.19956(2) 0.05044(2) 0.19956(2)
O2LB O 0.4022(4) 0.0315(3) 0.0845(3)
O2T O 0.4685(4) -0.0845(3) 0.0978(3)
O2VA O 0.5845(4) -0.0978(3) 0.0315(3)
O2P O 0.5978(4) -0.0315(3) -0.0845(3)
O2PB O 0.5315(4) 0.0845(3) -0.0978(3)
C1LB C 0.3800(6) -0.0205(5) 0.1181(5)
C1T C 0.5205(6) -0.1181(5) 0.1200(5)
C1VA C 0.6181(6) -0.1200(5) -0.0205(5)
C1P C 0.6200(6) 0.0205(5) -0.1181(5)
C1PB C 0.4795(6) 0.1181(5) -0.1200(5)
H1LB H 0.35130 -0.00690 0.15050
H1T H 0.50690 -0.15050 0.14870
H1VA H 0.65050 -0.14870 -0.00690
H1P H 0.64870 0.00690 -0.15050
H1PB H 0.49310 0.15050 -0.14870
H2LB H 0.35790 -0.04870 0.09030
H2T H 0.54870 -0.09030 0.14210
H2VA H 0.59030 -0.14210 -0.04870
H2P H 0.64210 0.04870 -0.09030
H2PB H 0.45130 0.09030 -0.14210
C2LB C 0.3529(5) 0.0650(5) 0.0536(6)
C2T C 0.4350(5) -0.0536(5) 0.1471(6)
C2VA C 0.5536(5) -0.1471(5) 0.0650(6)
C2P C 0.6471(5) -0.0650(5) -0.0536(6)
C2PB C 0.5650(5) 0.0536(5) -0.1471(6)
H3PB H 0.53810 0.02370 -0.16800
H3P H 0.66800 -0.03810 -0.02370
H3VA H 0.52370 -0.16800 0.03810
H3T H 0.46190 -0.02370 0.16800
H3LB H 0.33200 0.03810 0.02370
H4PB H 0.57940 0.08380 -0.17770
H4P H 0.67770 -0.07940 -0.08380
H4VA H 0.58380 -0.17770 0.07940
H4T H 0.42060 -0.08380 0.17770
H4LB H 0.32230 0.07940 0.08380
#END

data_CSD_CIF_LIXGIJ
_audit_creation_date 2008-07-31
_audit_creation_method CSD-ConQuest-V1
_database_code_CSD LIXGIJ
_database_code_depnum_ccdc_archive 'CCDC 681886'
_chemical_formula_sum 'C40 H40 Cl20 Fe8 N24 O8.5'
_chemical_formula_moiety
;
C36 H24 Cl16 Fe8 N24 O4,2(C1 H2 Cl2),0.5(C4 H8 O1),4(H2 O1)
;
_journal_coden_Cambridge 9
_journal_volume 47
_journal_year 2008
_journal_page_first 645
_journal_name_full 'Inorg.Chem. '
loop_
_publ_author_name
"P.Baran"
"R.Boca"
"I.Chakraborty"
"J.Giapintzakis"
"R.Herchel"
"Qing Huang"
"J.E.McGrady"
"R.G.Raptis"
"Y.Sanakis"
"A.Simopoulos"
_chemical_name_systematic
;
tetrakis(\m~4~-Oxo)-dodecakis(\m~2~-4-chloropyrazolato)-tetrachloro-octa-iron(
iii) dichloromethane tetrahydrofuran solvate tetrahydrate
;
_cell_volume  17442.491
_exptl_crystal_colour 'dark orange'
_exptl_special_details
;
Solvent molecules in interstitial cavities between cluster molecules have not 
been refined and account for 24% void space in the structure
;
_exptl_crystal_description 'octahedron'
_diffrn_ambient_temperature 299
#These two values have been output from a single CSD field.
_refine_ls_R_factor_gt 0.0431
_refine_ls_wR_factor_gt 0.0431
_symmetry_cell_setting cubic
_symmetry_space_group_name_H-M 'F d -3'
_symmetry_Int_Tables_number 203
loop_
_symmetry_equiv_pos_site_id
_symmetry_equiv_pos_as_xyz
1 x,y,z
2 1/4-x,1/4-y,z
3 1/4-x,y,1/4-z
4 x,1/4-y,1/4-z
5 z,x,y
6 z,1/4-x,1/4-y
7 1/4-z,1/4-x,y
8 1/4-z,x,1/4-y
9 y,z,x
10 1/4-y,z,1/4-x
11 y,1/4-z,1/4-x
12 1/4-y,1/4-z,x
13 x,1/2+y,1/2+z
14 z,1/2+x,1/2+y
15 y,1/2+z,1/2+x
16 1/2+x,y,1/2+z
17 1/2+z,x,1/2+y
18 1/2+y,z,1/2+x
19 1/2+x,1/2+y,z
20 1/2+z,1/2+x,y
21 1/2+y,1/2+z,x
22 1/4-x,3/4-y,1/2+z
23 1/4-x,1/2+y,3/4-z
24 x,3/4-y,3/4-z
25 z,3/4-x,3/4-y
26 1/4-z,3/4-x,1/2+y
27 1/4-z,1/2+x,3/4-y
28 1/4-y,1/2+z,3/4-x
29 y,3/4-z,3/4-x
30 1/4-y,3/4-z,1/2+x
31 3/4-x,1/4-y,1/2+z
32 3/4-x,y,3/4-z
33 1/2+x,1/4-y,3/4-z
34 1/2+z,1/4-x,3/4-y
35 3/4-z,1/4-x,1/2+y
36 3/4-z,x,3/4-y
37 3/4-y,z,3/4-x
38 1/2+y,1/4-z,3/4-x
39 3/4-y,1/4-z,1/2+x
40 3/4-x,3/4-y,z
41 3/4-x,1/2+y,1/4-z
42 1/2+x,3/4-y,1/4-z
43 1/2+z,3/4-x,1/4-y
44 3/4-z,3/4-x,y
45 3/4-z,1/2+x,1/4-y
46 3/4-y,1/2+z,1/4-x
47 1/2+y,3/4-z,1/4-x
48 3/4-y,3/4-z,x
49 -x,-y,-z
50 -1/4+x,-1/4+y,-z
51 -1/4+x,-y,-1/4+z
52 -x,-1/4+y,-1/4+z
53 -z,-x,-y
54 -z,-1/4+x,-1/4+y
55 -1/4+z,-1/4+x,-y
56 -1/4+z,-x,-1/4+y
57 -y,-z,-x
58 -1/4+y,-z,-1/4+x
59 -y,-1/4+z,-1/4+x
60 -1/4+y,-1/4+z,-x
61 -x,-1/2-y,-1/2-z
62 -z,-1/2-x,-1/2-y
63 -y,-1/2-z,-1/2-x
64 -1/2-x,-y,-1/2-z
65 -1/2-z,-x,-1/2-y
66 -1/2-y,-z,-1/2-x
67 -1/2-x,-1/2-y,-z
68 -1/2-z,-1/2-x,-y
69 -1/2-y,-1/2-z,-x
70 -1/4+x,-3/4+y,-1/2-z
71 -1/4+x,-1/2-y,-3/4+z
72 -x,-3/4+y,-3/4+z
73 -z,-3/4+x,-3/4+y
74 -1/4+z,-3/4+x,-1/2-y
75 -1/4+z,-1/2-x,-3/4+y
76 -1/4+y,-1/2-z,-3/4+x
77 -y,-3/4+z,-3/4+x
78 -1/4+y,-3/4+z,-1/2-x
79 -3/4+x,-1/4+y,-1/2-z
80 -3/4+x,-y,-3/4+z
81 -1/2-x,-1/4+y,-3/4+z
82 -1/2-z,-1/4+x,-3/4+y
83 -3/4+z,-1/4+x,-1/2-y
84 -3/4+z,-x,-3/4+y
85 -3/4+y,-z,-3/4+x
86 -1/2-y,-1/4+z,-3/4+x
87 -3/4+y,-1/4+z,-1/2-x
88 -3/4+x,-3/4+y,-z
89 -3/4+x,-1/2-y,-1/4+z
90 -1/2-x,-3/4+y,-1/4+z
91 -1/2-z,-3/4+x,-1/4+y
92 -3/4+z,-3/4+x,-y
93 -3/4+z,-1/2-x,-1/4+y
94 -3/4+y,-1/2-z,-1/4+x
95 -1/2-y,-3/4+z,-1/4+x
96 -3/4+y,-3/4+z,-x
_cell_length_a 25.9340(18)
_cell_length_b 25.9340(18)
_cell_length_c 25.9340(18)
_cell_angle_alpha 90
_cell_angle_beta 90
_cell_angle_gamma 90
_cell_formula_units_Z 8
loop_
_atom_type_symbol
_atom_type_radius_bond
C 0.68
H 0.23
Cl 0.99
Fe 1.29
N 0.68
O 0.68
loop_
_atom_site_label
_atom_site_type_symbol
_atom_site_fract_x
_atom_site_fract_y
_atom_site_fract_z
Fe1 Fe 0.08313(3) 0.58313(3) 0.58313(3)
Fe2 Fe 0.04533(3) 0.54533(3) 0.70467(3)
Cl1 Cl -0.00570(5) 0.49430(5) 0.75570(5)
Cl2 Cl 0.16538(8) 0.35678(6) 0.69566(11)
O1 O 0.08823(12) 0.58823(12) 0.66177(12)
N1 N 0.00537(16) 0.56718(17) 0.59977(16)
N2 N 0.10181(17) 0.49155(16) 0.69823(17)
C1 C 0.1000(2) 0.4406(2) 0.7039(2)
H1 H 0.07130 0.42170 0.71390
C2 C 0.1476(2) 0.4208(2) 0.6924(2)
C3 C -0.0379(2) 0.5705(2) 0.5719(2)
H2 H -0.03980 0.58000 0.53740
Fe1B Fe 0.16687(3) 0.58313(3) 0.66687(3)
Fe1C Fe 0.08313(3) 0.66687(3) 0.66687(3)
Fe1A Fe 0.16687(3) 0.66687(3) 0.58313(3)
Fe2C Fe 0.04533(3) 0.70467(3) 0.54533(3)
Fe2B Fe 0.20467(3) 0.54533(3) 0.54533(3)
Fe2A Fe 0.20467(3) 0.70467(3) 0.70467(3)
Cl1C Cl -0.00570(5) 0.75570(5) 0.49430(5)
Cl1B Cl 0.25570(5) 0.49430(5) 0.49430(5)
Cl1A Cl 0.25570(5) 0.75570(5) 0.75570(5)
Cl2QA Cl 0.05434(8) 0.58462(6) 0.35678(11)
Cl2Q Cl -0.14322(8) 0.69566(6) 0.66538(11)
Cl2A Cl 0.08462(8) 0.89322(6) 0.69566(11)
Cl2PA Cl 0.19566(8) 0.58462(6) 0.89322(11)
Cl2LA Cl 0.39322(8) 0.55434(6) 0.66538(11)
Cl2S Cl 0.19566(8) 0.66538(6) 0.35678(11)
Cl2JA Cl 0.39322(8) 0.69566(6) 0.58462(11)
Cl2RA Cl 0.05434(8) 0.66538(6) 0.89322(11)
Cl2KA Cl -0.14322(8) 0.55434(6) 0.58462(11)
Cl2B Cl 0.08462(8) 0.35678(6) 0.55434(11)
Cl2C Cl 0.16538(8) 0.89322(6) 0.55434(11)
O1B O 0.16177(12) 0.58823(12) 0.58823(12)
O1C O 0.08823(12) 0.66177(12) 0.58823(12)
O1A O 0.16177(12) 0.66177(12) 0.66177(12)
N1QA N 0.15023(16) 0.74463(17) 0.56718(16)
N1S N 0.09977(16) 0.50537(17) 0.56718(16)
N1C N 0.00537(16) 0.68282(17) 0.65023(16)
N1Q N 0.06718(16) 0.59977(17) 0.50537(16)
N1KA N 0.06718(16) 0.65023(17) 0.74463(16)
N1RA N 0.15023(16) 0.50537(17) 0.68282(16)
N1PA N 0.09977(16) 0.74463(17) 0.68282(16)
N1A N 0.24463(16) 0.68282(17) 0.59977(16)
N1LA N 0.18282(16) 0.65023(17) 0.50537(16)
N1B N 0.24463(16) 0.56718(17) 0.65023(16)
N1JA N 0.18282(16) 0.59977(17) 0.74463(16)
N2C N 0.10181(17) 0.75845(16) 0.55177(17)
N2B N 0.14819(17) 0.49155(16) 0.55177(17)
N2KA N -0.00845(17) 0.55177(16) 0.64819(17)
N2Q N -0.00845(17) 0.69823(16) 0.60181(17)
N2QA N 0.05177(17) 0.64819(16) 0.49155(17)
N2RA N 0.05177(17) 0.60181(16) 0.75845(17)
N2A N 0.14819(17) 0.75845(16) 0.69823(17)
N2JA N 0.25845(17) 0.69823(16) 0.64819(17)
N2S N 0.19823(17) 0.60181(16) 0.49155(17)
N2LA N 0.25845(17) 0.55177(16) 0.60181(17)
N2PA N 0.19823(17) 0.64819(16) 0.75845(17)
C1QA C 0.0461(2) 0.6500(2) 0.4406(2)
C1Q C -0.0594(2) 0.7039(2) 0.6000(2)
C1A C 0.1500(2) 0.8094(2) 0.7039(2)
C1PA C 0.2039(2) 0.6500(2) 0.8094(2)
C1LA C 0.3094(2) 0.5461(2) 0.6000(2)
C1S C 0.2039(2) 0.6000(2) 0.4406(2)
C1JA C 0.3094(2) 0.7039(2) 0.6500(2)
C1RA C 0.0461(2) 0.6000(2) 0.8094(2)
C1KA C -0.0594(2) 0.5461(2) 0.6500(2)
C1B C 0.1500(2) 0.4406(2) 0.5461(2)
C1C C 0.1000(2) 0.8094(2) 0.5461(2)
H1QA H 0.03610 0.67870 0.42170
H1Q H -0.07830 0.71390 0.57130
H1A H 0.17870 0.82830 0.71390
H1PA H 0.21390 0.67870 0.82830
H1LA H 0.32830 0.53610 0.57130
H1S H 0.21390 0.57130 0.42170
H1JA H 0.32830 0.71390 0.67870
H1RA H 0.03610 0.57130 0.82830
H1KA H -0.07830 0.53610 0.67870
H1B H 0.17870 0.42170 0.53610
H1C H 0.07130 0.82830 0.53610
C2QA C 0.0576(2) 0.6024(2) 0.4208(2)
C2Q C -0.0792(2) 0.6924(2) 0.6476(2)
C2A C 0.1024(2) 0.8292(2) 0.6924(2)
C2PA C 0.1924(2) 0.6024(2) 0.8292(2)
C2LA C 0.3292(2) 0.5576(2) 0.6476(2)
C2S C 0.1924(2) 0.6476(2) 0.4208(2)
C2JA C 0.3292(2) 0.6924(2) 0.6024(2)
C2RA C 0.0576(2) 0.6476(2) 0.8292(2)
C2KA C -0.0792(2) 0.5576(2) 0.6024(2)
C2B C 0.1024(2) 0.4208(2) 0.5576(2)
C2C C 0.1476(2) 0.8292(2) 0.5576(2)
C3Q C 0.0705(2) 0.5719(2) 0.4621(2)
C3C C -0.0379(2) 0.6795(2) 0.6781(2)
C3PA C 0.0719(2) 0.7879(2) 0.6795(2)
C3JA C 0.1795(2) 0.5719(2) 0.7879(2)
C3B C 0.2879(2) 0.5705(2) 0.6781(2)
C3LA C 0.1795(2) 0.6781(2) 0.4621(2)
C3A C 0.2879(2) 0.6795(2) 0.5719(2)
C3RA C 0.1781(2) 0.4621(2) 0.6795(2)
C3KA C 0.0705(2) 0.6781(2) 0.7879(2)
C3S C 0.0719(2) 0.4621(2) 0.5705(2)
C3QA C 0.1781(2) 0.7879(2) 0.5705(2)
H2Q H 0.08000 0.53740 0.46020
H2C H -0.03980 0.67000 0.71260
H2PA H 0.03740 0.78980 0.67000
H2JA H 0.17000 0.53740 0.78980
H2B H 0.28980 0.58000 0.71260
H2LA H 0.17000 0.71260 0.46020
H2A H 0.28980 0.67000 0.53740
H2RA H 0.21260 0.46020 0.67000
H2KA H 0.08000 0.71260 0.78980
H2S H 0.03740 0.46020 0.58000
H2QA H 0.21260 0.78980 0.58000
#END

data_CSD_CIF_PIHCUG
_audit_creation_date 2013-07-20
_audit_creation_method CSD-ConQuest-V1
_database_code_CSD PIHCUG
_database_code_depnum_ccdc_archive 'CCDC 923868'
_chemical_formula_sum 'C60 H88 B4 N24 S4 Y4'
_chemical_formula_moiety
;
C60 H88 B4 N24 S4 Y4
;
_journal_coden_Cambridge 1220
_journal_volume 19
_journal_year 2013
_journal_page_first 11975
_journal_name_full 'Chem.-Eur.J. '
loop_
_publ_author_name
"Weiyin Yi"
"Jie Zhang"
"Fangjun Zhang"
"Yin Zhang"
"Zhenxia Chen"
"Xigeng Zhou"
_chemical_name_systematic
;
tetrakis(\m~3~-sulfido)-tetrakis(hydrogen 
tris(3,5-dimethylpyrazolyl)borato)-tetra-yttrium
;
_cell_volume  15561.337
_exptl_crystal_colour 'colorless'
_exptl_crystal_density_diffrn 1.428
_exptl_crystal_description 'block'
_diffrn_ambient_temperature 293
#These two values have been output from a single CSD field.
_refine_ls_R_factor_gt 0.0323
_refine_ls_wR_factor_gt 0.0323
_symmetry_cell_setting cubic
_symmetry_space_group_name_H-M 'F d -3'
_symmetry_Int_Tables_number 203
loop_
_symmetry_equiv_pos_site_id
_symmetry_equiv_pos_as_xyz
1 x,y,z
2 1/4-x,1/4-y,z
3 1/4-x,y,1/4-z
4 x,1/4-y,1/4-z
5 z,x,y
6 z,1/4-x,1/4-y
7 1/4-z,1/4-x,y
8 1/4-z,x,1/4-y
9 y,z,x
10 1/4-y,z,1/4-x
11 y,1/4-z,1/4-x
12 1/4-y,1/4-z,x
13 x,1/2+y,1/2+z
14 1/4-x,3/4-y,1/2+z
15 1/4-x,1/2+y,3/4-z
16 x,3/4-y,3/4-z
17 z,1/2+x,1/2+y
18 z,3/4-x,3/4-y
19 1/4-z,3/4-x,1/2+y
20 1/4-z,1/2+x,3/4-y
21 y,1/2+z,1/2+x
22 1/4-y,1/2+z,3/4-x
23 y,3/4-z,3/4-x
24 1/4-y,3/4-z,1/2+x
25 1/2+x,y,1/2+z
26 3/4-x,1/4-y,1/2+z
27 3/4-x,y,3/4-z
28 1/2+x,1/4-y,3/4-z
29 1/2+z,x,1/2+y
30 1/2+z,1/4-x,3/4-y
31 3/4-z,1/4-x,1/2+y
32 3/4-z,x,3/4-y
33 1/2+y,z,1/2+x
34 3/4-y,z,3/4-x
35 1/2+y,1/4-z,3/4-x
36 3/4-y,1/4-z,1/2+x
37 1/2+x,1/2+y,z
38 3/4-x,3/4-y,z
39 3/4-x,1/2+y,1/4-z
40 1/2+x,3/4-y,1/4-z
41 1/2+z,1/2+x,y
42 1/2+z,3/4-x,1/4-y
43 3/4-z,3/4-x,y
44 3/4-z,1/2+x,1/4-y
45 1/2+y,1/2+z,x
46 3/4-y,1/2+z,1/4-x
47 1/2+y,3/4-z,1/4-x
48 3/4-y,3/4-z,x
49 -x,-y,-z
50 -1/4+x,-1/4+y,-z
51 -1/4+x,-y,-1/4+z
52 -x,-1/4+y,-1/4+z
53 -z,-x,-y
54 -z,-1/4+x,-1/4+y
55 -1/4+z,-1/4+x,-y
56 -1/4+z,-x,-1/4+y
57 -y,-z,-x
58 -1/4+y,-z,-1/4+x
59 -y,-1/4+z,-1/4+x
60 -1/4+y,-1/4+z,-x
61 -x,-1/2-y,-1/2-z
62 -1/4+x,-3/4+y,-1/2-z
63 -1/4+x,-1/2-y,-3/4+z
64 -x,-3/4+y,-3/4+z
65 -z,-1/2-x,-1/2-y
66 -z,-3/4+x,-3/4+y
67 -1/4+z,-3/4+x,-1/2-y
68 -1/4+z,-1/2-x,-3/4+y
69 -y,-1/2-z,-1/2-x
70 -1/4+y,-1/2-z,-3/4+x
71 -y,-3/4+z,-3/4+x
72 -1/4+y,-3/4+z,-1/2-x
73 -1/2-x,-y,-1/2-z
74 -3/4+x,-1/4+y,-1/2-z
75 -3/4+x,-y,-3/4+z
76 -1/2-x,-1/4+y,-3/4+z
77 -1/2-z,-x,-1/2-y
78 -1/2-z,-1/4+x,-3/4+y
79 -3/4+z,-1/4+x,-1/2-y
80 -3/4+z,-x,-3/4+y
81 -1/2-y,-z,-1/2-x
82 -3/4+y,-z,-3/4+x
83 -1/2-y,-1/4+z,-3/4+x
84 -3/4+y,-1/4+z,-1/2-x
85 -1/2-x,-1/2-y,-z
86 -3/4+x,-3/4+y,-z
87 -3/4+x,-1/2-y,-1/4+z
88 -1/2-x,-3/4+y,-1/4+z
89 -1/2-z,-1/2-x,-y
90 -1/2-z,-3/4+x,-1/4+y
91 -3/4+z,-3/4+x,-y
92 -3/4+z,-1/2-x,-1/4+y
93 -1/2-y,-1/2-z,-x
94 -3/4+y,-1/2-z,-1/4+x
95 -1/2-y,-3/4+z,-1/4+x
96 -3/4+y,-3/4+z,-x
_cell_length_a 24.966(6)
_cell_length_b 24.966(6)
_cell_length_c 24.966(6)
_cell_angle_alpha 90
_cell_angle_beta 90
_cell_angle_gamma 90
_cell_formula_units_Z 8
loop_
_atom_type_symbol
_atom_type_radius_bond
C 0.68
H 0.23
B 0.83
N 0.68
S 1.02
Y 1.90
loop_
_atom_site_label
_atom_site_type_symbol
_atom_site_fract_x
_atom_site_fract_y
_atom_site_fract_z
Y1 Y 0.680425(11) 0.569575(11) 1.069575(11)
S1 S 0.67638(3) 0.67638(3) 1.07362(3)
N1 N 0.71472(11) 0.57909(12) 0.97518(11)
C1 C 0.6829(2) 0.66749(19) 0.93930(18)
H1 H 0.66960 0.67210 0.97510
H2 H 0.65360 0.66980 0.91440
H3 H 0.70850 0.69500 0.93150
N2 N 0.74295(12) 0.53629(12) 0.95450(11)
C2 C 0.70898(14) 0.61397(15) 0.93447(14)
C3 C 0.75385(16) 0.54568(18) 0.90221(15)
B1 B 0.76123(16) 0.48877(16) 0.98877(16)
C4 C 0.73279(16) 0.59359(18) 0.88904(15)
H4 H 0.73410 0.60990 0.85560
C5 C 0.7849(3) 0.5073(2) 0.8678(2)
H5 H 0.79460 0.47640 0.88860
H6 H 0.81670 0.52450 0.85480
H7 H 0.76320 0.49630 0.83800
H8 H 0.7840(15) 0.4660(15) 0.9660(15)
N1U N 0.67091(11) 0.47518(12) 1.03528(11)
C1U C 0.58251(20) 0.43930(19) 1.06710(18)
H1U H 0.57790 0.47510 1.08040
H2U H 0.58020 0.41440 1.09640
H3U H 0.55500 0.43150 1.04150
N2U N 0.71371(12) 0.45450(12) 1.00705(11)
C2U C 0.63603(14) 0.43447(15) 1.04102(14)
C3U C 0.70432(16) 0.40221(18) 0.99615(15)
C4U C 0.65641(16) 0.38904(18) 1.01721(15)
H4U H 0.64010 0.35560 1.01590
C5U C 0.7427(3) 0.3678(2) 0.9651(2)
H5U H 0.77360 0.38860 0.95540
H6U H 0.72550 0.35480 0.93330
H7U H 0.75370 0.33800 0.98680
N1DA N 0.77482(11) 0.53528(12) 1.07909(11)
C1DA C 0.8107(2) 0.56710(19) 1.16749(18)
H1DA H 0.77490 0.58040 1.17210
H2DA H 0.83560 0.59640 1.16980
H3DA H 0.81850 0.54150 1.19500
N2DA N 0.79550(12) 0.50705(12) 1.03629(11)
C2DA C 0.81553(14) 0.54102(15) 1.11397(14)
C3DA C 0.84779(16) 0.49615(18) 1.04568(15)
C4DA C 0.86096(16) 0.51721(18) 1.09359(15)
H4DA H 0.89440 0.51590 1.10990
C5DA C 0.8822(3) 0.4651(2) 1.0073(2)
H5DA H 0.86140 0.45540 0.97640
H6DA H 0.89520 0.43330 1.02450
H7DA H 0.91200 0.48680 0.99630
Y1A Y 0.569575(11) 0.680425(11) 1.069575(11)
S1A S 0.57362(3) 0.57362(3) 1.07362(3)
N1A N 0.53528(11) 0.67091(12) 0.97518(11)
C1A C 0.5671(2) 0.58251(19) 0.93930(18)
H1A H 0.58040 0.57790 0.97510
H2A H 0.59640 0.58020 0.91440
H3A H 0.54150 0.55500 0.93150
N2A N 0.50705(12) 0.71371(12) 0.95450(11)
C2A C 0.54102(14) 0.63603(15) 0.93447(14)
C3A C 0.49615(16) 0.70432(18) 0.90221(15)
B1A B 0.48877(16) 0.76123(16) 0.98877(16)
C4A C 0.51721(16) 0.65641(18) 0.88904(15)
H4A H 0.51590 0.64010 0.85560
C5A C 0.4651(3) 0.7427(2) 0.8678(2)
H5A H 0.45540 0.77360 0.88860
H6A H 0.43330 0.72550 0.85480
H7A H 0.48680 0.75370 0.83800
H8A H 0.4660(15) 0.7840(15) 0.9660(15)
N1V N 0.57909(11) 0.77482(12) 1.03528(11)
C1V C 0.66749(20) 0.81070(19) 1.06710(18)
H1V H 0.67210 0.77490 1.08040
H2V H 0.66980 0.83560 1.09640
H3V H 0.69500 0.81850 1.04150
N2V N 0.53629(12) 0.79550(12) 1.00705(11)
C2V C 0.61397(14) 0.81553(15) 1.04102(14)
C3V C 0.54568(16) 0.84779(18) 0.99615(15)
C4V C 0.59359(16) 0.86096(18) 1.01721(15)
H4V H 0.60990 0.89440 1.01590
C5V C 0.5073(3) 0.8822(2) 0.9651(2)
H5V H 0.47640 0.86140 0.95540
H6V H 0.52450 0.89520 0.93330
H7V H 0.49630 0.91200 0.98680
N1BA N 0.47518(11) 0.71472(12) 1.07909(11)
C1BA C 0.4393(2) 0.68290(19) 1.16749(18)
H1BA H 0.47510 0.66960 1.17210
H2BA H 0.41440 0.65360 1.16980
H3BA H 0.43150 0.70850 1.19500
N2BA N 0.45450(12) 0.74295(12) 1.03629(11)
C2BA C 0.43447(14) 0.70898(15) 1.11397(14)
C3BA C 0.40221(16) 0.75385(18) 1.04568(15)
C4BA C 0.38904(16) 0.73279(18) 1.09359(15)
H4BA H 0.35560 0.73410 1.10990
C5BA C 0.3678(3) 0.7849(2) 1.0073(2)
H5BA H 0.38860 0.79460 0.97640
H6BA H 0.35480 0.81670 1.02450
H7BA H 0.33800 0.76320 0.99630
Y1B Y 0.569575(11) 0.569575(11) 1.180425(11)
S1B S 0.57362(3) 0.67638(3) 1.17638(3)
N1B N 0.53528(11) 0.57909(12) 1.27482(11)
C1B C 0.5671(2) 0.66749(19) 1.31070(18)
H1B H 0.58040 0.67210 1.27490
H2B H 0.59640 0.66980 1.33560
H3B H 0.54150 0.69500 1.31850
N2B N 0.50705(12) 0.53629(12) 1.29550(11)
C2B C 0.54102(14) 0.61397(15) 1.31553(14)
C3B C 0.49615(16) 0.54568(18) 1.34779(15)
B1B B 0.48877(16) 0.48877(16) 1.26123(16)
C4B C 0.51721(16) 0.59359(18) 1.36096(15)
H4B H 0.51590 0.60990 1.39440
C5B C 0.4651(3) 0.5073(2) 1.3822(2)
H5B H 0.45540 0.47640 1.36140
H6B H 0.43330 0.52450 1.39520
H7B H 0.48680 0.49630 1.41200
H8B H 0.4660(15) 0.4660(15) 1.2840(15)
N1T N 0.57909(11) 0.47518(12) 1.21472(11)
C1T C 0.66749(20) 0.43930(19) 1.18290(18)
H1T H 0.67210 0.47510 1.16960
H2T H 0.66980 0.41440 1.15360
H3T H 0.69500 0.43150 1.20850
N2T N 0.53629(12) 0.45450(12) 1.24295(11)
C2T C 0.61397(14) 0.43447(15) 1.20898(14)
C3T C 0.54568(16) 0.40221(18) 1.25385(15)
C4T C 0.59359(16) 0.38904(18) 1.23279(15)
H4T H 0.60990 0.35560 1.23410
C5T C 0.5073(3) 0.3678(2) 1.2849(2)
H5T H 0.47640 0.38860 1.29460
H6T H 0.52450 0.35480 1.31670
H7T H 0.49630 0.33800 1.26320
N1CA N 0.47518(11) 0.53528(12) 1.17091(11)
C1CA C 0.4393(2) 0.56710(19) 1.08251(18)
H1CA H 0.47510 0.58040 1.07790
H2CA H 0.41440 0.59640 1.08020
H3CA H 0.43150 0.54150 1.05500
N2CA N 0.45450(12) 0.50705(12) 1.21371(11)
C2CA C 0.43447(14) 0.54102(15) 1.13603(14)
C3CA C 0.40221(16) 0.49615(18) 1.20432(15)
C4CA C 0.38904(16) 0.51721(18) 1.15641(15)
H4CA H 0.35560 0.51590 1.14010
C5CA C 0.3678(3) 0.4651(2) 1.2427(2)
H5CA H 0.38860 0.45540 1.27360
H6CA H 0.35480 0.43330 1.22550
H7CA H 0.33800 0.48680 1.25370
Y1C Y 0.680425(11) 0.680425(11) 1.180425(11)
S1C S 0.67638(3) 0.57362(3) 1.17638(3)
N1C N 0.71472(11) 0.67091(12) 1.27482(11)
C1C C 0.6829(2) 0.58251(19) 1.31070(18)
H1C H 0.66960 0.57790 1.27490
H2C H 0.65360 0.58020 1.33560
H3C H 0.70850 0.55500 1.31850
N2C N 0.74295(12) 0.71371(12) 1.29550(11)
C2C C 0.70898(14) 0.63603(15) 1.31553(14)
C3C C 0.75385(16) 0.70432(18) 1.34779(15)
B1C B 0.76123(16) 0.76123(16) 1.26123(16)
C4C C 0.73279(16) 0.65641(18) 1.36096(15)
H4C H 0.73410 0.64010 1.39440
C5C C 0.7849(3) 0.7427(2) 1.3822(2)
H5C H 0.79460 0.77360 1.36140
H6C H 0.81670 0.72550 1.39520
H7C H 0.76320 0.75370 1.41200
H8C H 0.7840(15) 0.7840(15) 1.2840(15)
N1W N 0.67091(11) 0.77482(12) 1.21472(11)
C1W C 0.58251(20) 0.81070(19) 1.18290(18)
H1W H 0.57790 0.77490 1.16960
H2W H 0.58020 0.83560 1.15360
H3W H 0.55500 0.81850 1.20850
N2W N 0.71371(12) 0.79550(12) 1.24295(11)
C2W C 0.63603(14) 0.81553(15) 1.20898(14)
C3W C 0.70432(16) 0.84779(18) 1.25385(15)
C4W C 0.65641(16) 0.86096(18) 1.23279(15)
H4W H 0.64010 0.89440 1.23410
C5W C 0.7427(3) 0.8822(2) 1.2849(2)
H5W H 0.77360 0.86140 1.29460
H6W H 0.72550 0.89520 1.31670
H7W H 0.75370 0.91200 1.26320
N1EA N 0.77482(11) 0.71472(12) 1.17091(11)
C1EA C 0.8107(2) 0.68290(19) 1.08251(18)
H1EA H 0.77490 0.66960 1.07790
H2EA H 0.83560 0.65360 1.08020
H3EA H 0.81850 0.70850 1.05500
N2EA N 0.79550(12) 0.74295(12) 1.21371(11)
C2EA C 0.81553(14) 0.70898(15) 1.13603(14)
C3EA C 0.84779(16) 0.75385(18) 1.20432(15)
C4EA C 0.86096(16) 0.73279(18) 1.15641(15)
H4EA H 0.89440 0.73410 1.14010
C5EA C 0.8822(3) 0.7849(2) 1.2427(2)
H5EA H 0.86140 0.79460 1.27360
H6EA H 0.89520 0.81670 1.22550
H7EA H 0.91200 0.76320 1.25370
#END

data_CSD_CIF_WUXSUF
_audit_creation_date 2015-10-15
_audit_creation_method CSD-ConQuest-V1
_database_code_CSD WUXSUF
_database_code_depnum_ccdc_archive 'CCDC 1431552'
_chemical_formula_sum 'C2 Cl1 Co1 Na3 O6'
_chemical_formula_moiety
;
Co1 2+,2(C1 O3 2-),3(Na1 1+),Cl1 1-
;
_journal_coden_Cambridge 591
_journal_volume 67
_journal_year 2011
_journal_page_first i56
_journal_name_full 'Acta Crystallogr.,Sect.C:Cryst.Struct.Commun. '
loop_
_publ_author_name
"Y.Zheng"
"A.Ellern"
"P.Kogerler"
_chemical_name_systematic
;
Cobalt(ii) tri-sodium dicarbonate chloride
;
_cell_volume   2741.590
_exptl_crystal_colour 'pink'
_exptl_crystal_density_diffrn 2.746
_exptl_crystal_description 'plate'
_diffrn_ambient_temperature 123
#These two values have been output from a single CSD field.
_refine_ls_R_factor_gt 0.0155
_refine_ls_wR_factor_gt 0.0155
_symmetry_cell_setting cubic
_symmetry_space_group_name_H-M 'F d -3'
_symmetry_Int_Tables_number 203
loop_
_symmetry_equiv_pos_site_id
_symmetry_equiv_pos_as_xyz
1 x,y,z
2 1/4-x,1/4-y,z
3 1/4-x,y,1/4-z
4 x,1/4-y,1/4-z
5 z,x,y
6 z,1/4-x,1/4-y
7 1/4-z,1/4-x,y
8 1/4-z,x,1/4-y
9 y,z,x
10 1/4-y,z,1/4-x
11 y,1/4-z,1/4-x
12 1/4-y,1/4-z,x
13 x,1/2+y,1/2+z
14 1/4-x,3/4-y,1/2+z
15 1/4-x,1/2+y,3/4-z
16 x,3/4-y,3/4-z
17 z,1/2+x,1/2+y
18 z,3/4-x,3/4-y
19 1/4-z,3/4-x,1/2+y
20 1/4-z,1/2+x,3/4-y
21 y,1/2+z,1/2+x
22 1/4-y,1/2+z,3/4-x
23 y,3/4-z,3/4-x
24 1/4-y,3/4-z,1/2+x
25 1/2+x,y,1/2+z
26 3/4-x,1/4-y,1/2+z
27 3/4-x,y,3/4-z
28 1/2+x,1/4-y,3/4-z
29 1/2+z,x,1/2+y
30 1/2+z,1/4-x,3/4-y
31 3/4-z,1/4-x,1/2+y
32 3/4-z,x,3/4-y
33 1/2+y,z,1/2+x
34 3/4-y,z,3/4-x
35 1/2+y,1/4-z,3/4-x
36 3/4-y,1/4-z,1/2+x
37 1/2+x,1/2+y,z
38 3/4-x,3/4-y,z
39 3/4-x,1/2+y,1/4-z
40 1/2+x,3/4-y,1/4-z
41 1/2+z,1/2+x,y
42 1/2+z,3/4-x,1/4-y
43 3/4-z,3/4-x,y
44 3/4-z,1/2+x,1/4-y
45 1/2+y,1/2+z,x
46 3/4-y,1/2+z,1/4-x
47 1/2+y,3/4-z,1/4-x
48 3/4-y,3/4-z,x
49 -x,-y,-z
50 -1/4+x,-1/4+y,-z
51 -1/4+x,-y,-1/4+z
52 -x,-1/4+y,-1/4+z
53 -z,-x,-y
54 -z,-1/4+x,-1/4+y
55 -1/4+z,-1/4+x,-y
56 -1/4+z,-x,-1/4+y
57 -y,-z,-x
58 -1/4+y,-z,-1/4+x
59 -y,-1/4+z,-1/4+x
60 -1/4+y,-1/4+z,-x
61 -x,-1/2-y,-1/2-z
62 -1/4+x,-3/4+y,-1/2-z
63 -1/4+x,-1/2-y,-3/4+z
64 -x,-3/4+y,-3/4+z
65 -z,-1/2-x,-1/2-y
66 -z,-3/4+x,-3/4+y
67 -1/4+z,-3/4+x,-1/2-y
68 -1/4+z,-1/2-x,-3/4+y
69 -y,-1/2-z,-1/2-x
70 -1/4+y,-1/2-z,-3/4+x
71 -y,-3/4+z,-3/4+x
72 -1/4+y,-3/4+z,-1/2-x
73 -1/2-x,-y,-1/2-z
74 -3/4+x,-1/4+y,-1/2-z
75 -3/4+x,-y,-3/4+z
76 -1/2-x,-1/4+y,-3/4+z
77 -1/2-z,-x,-1/2-y
78 -1/2-z,-1/4+x,-3/4+y
79 -3/4+z,-1/4+x,-1/2-y
80 -3/4+z,-x,-3/4+y
81 -1/2-y,-z,-1/2-x
82 -3/4+y,-z,-3/4+x
83 -1/2-y,-1/4+z,-3/4+x
84 -3/4+y,-1/4+z,-1/2-x
85 -1/2-x,-1/2-y,-z
86 -3/4+x,-3/4+y,-z
87 -3/4+x,-1/2-y,-1/4+z
88 -1/2-x,-3/4+y,-1/4+z
89 -1/2-z,-1/2-x,-y
90 -1/2-z,-3/4+x,-1/4+y
91 -3/4+z,-3/4+x,-y
92 -3/4+z,-1/2-x,-1/4+y
93 -1/2-y,-1/2-z,-x
94 -3/4+y,-1/2-z,-1/4+x
95 -1/2-y,-3/4+z,-1/4+x
96 -3/4+y,-3/4+z,-x
_cell_length_a 13.9959(5)
_cell_length_b 13.9959(5)
_cell_length_c 13.9959(5)
_cell_angle_alpha 90
_cell_angle_beta 90
_cell_angle_gamma 90
_cell_formula_units_Z 16
loop_
_atom_type_symbol
_atom_type_radius_bond
C 0.68
Cl 0.99
Co 1.26
Na 1.66
O 0.68
loop_
_atom_site_label
_atom_site_type_symbol
_atom_site_fract_x
_atom_site_fract_y
_atom_site_fract_z
Co1 Co 0.00000 0.50000 0.50000
O1 O -0.02419(6) 0.64680(6) 0.51647(6)
C1 C 0.03277(8) 0.71723(8) 0.53277(8)
Na1 Na -0.15071(5) 0.62500 0.62500
Cl1 Cl -0.25000 0.50000 0.75000
O1IA O 0.10320(6) 0.73353(6) 0.47581(6)
O1OA O 0.01647(6) 0.77419(6) 0.60320(6)
#END
