
#######################################################################
#
#                 Cambridge Crystallographic Data Centre
#                                CCDC
#
#######################################################################
#
# If this CIF has been generated from an entry in the Cambridge
# Structural Database, then it will include bibliographic, chemical,
# crystal, experimental, refinement or atomic coordinate data resulting
# from the CCDC's data processing and validation procedures.
#
#######################################################################

data_CSD_CIF_BIZGOH
_audit_creation_date 2008-07-22
_audit_creation_method CSD-ConQuest-V1
_database_code_CSD BIZGOH
_database_code_depnum_ccdc_archive 'CCDC 689123'
_chemical_formula_sum 'C24 H60 Cl1 Cu1 N12 O6 P4'
_chemical_formula_moiety
;
C24 H48 Cu1 N12 P4 1+,Cl1 1-,6(H2 O1)
;
_journal_coeditor_code "IUCr DN2329"
_journal_coden_Cambridge 1370
_journal_volume 64
_journal_year 2008
_journal_page_first m603
_journal_name_full 'Acta Crystallogr.,Sect.E:Struct.Rep.Online '
loop_
_publ_author_name
"A.M.Kirillov"
"P.Smolenski"
"M.F.C.Guedes da Silva"
"M.N.Kopylovich"
"A.J.L.Pombeiro"
_chemical_name_systematic
;
tetrakis(1,3,5-triaza-7-phospha-adamantane)-copper(i) chloride hexahydrate
;
_cell_volume   7756.513
_exptl_crystal_colour 'colorless'
_exptl_crystal_density_diffrn 1.431
_exptl_crystal_description 'prism'
_diffrn_ambient_temperature 150
#These two values have been output from a single CSD field.
_refine_ls_R_factor_gt 0.0335
_refine_ls_wR_factor_gt 0.0335
_symmetry_cell_setting cubic
_symmetry_space_group_name_H-M 'F d -3 m'
_symmetry_Int_Tables_number 227
loop_
_symmetry_equiv_pos_site_id
_symmetry_equiv_pos_as_xyz
1 x,y,z
2 1/4-x,1/4-y,z
3 x,1/4-y,1/4-z
4 1/4-x,y,1/4-z
5 z,x,y
6 y,z,x
7 1/4-z,1/4-x,y
8 1/4-y,z,1/4-x
9 z,1/4-x,1/4-y
10 1/4-y,1/4-z,x
11 1/4-z,x,1/4-y
12 y,1/4-z,1/4-x
13 1/4+y,1/4+x,-z
14 1/4+y,-x,1/4+z
15 -y,1/4+x,1/4+z
16 1/4+x,1/4+z,-y
17 -z,1/4+y,1/4+x
18 1/4+x,-z,1/4+y
19 1/4+z,1/4+y,-x
20 -x,1/4+z,1/4+y
21 1/4+z,-y,1/4+x
22 x,1/2+y,1/2+z
23 z,1/2+x,1/2+y
24 y,1/2+z,1/2+x
25 1/4+y,3/4+x,1/2-z
26 1/4+y,1/2-x,3/4+z
27 1/4+x,3/4+z,1/2-y
28 1/4+x,1/2-z,3/4+y
29 1/4+z,3/4+y,1/2-x
30 1/4+z,1/2-y,3/4+x
31 1/2+x,y,1/2+z
32 1/2+z,x,1/2+y
33 1/2+y,z,1/2+x
34 3/4+y,1/4+x,1/2-z
35 1/2-y,1/4+x,3/4+z
36 3/4+x,1/4+z,1/2-y
37 1/2-z,1/4+y,3/4+x
38 3/4+z,1/4+y,1/2-x
39 1/2-x,1/4+z,3/4+y
40 1/2+x,1/2+y,z
41 1/2+z,1/2+x,y
42 1/2+y,1/2+z,x
43 3/4+y,1/2-x,1/4+z
44 1/2-y,3/4+x,1/4+z
45 1/2-z,3/4+y,1/4+x
46 3/4+x,1/2-z,1/4+y
47 1/2-x,3/4+z,1/4+y
48 3/4+z,1/2-y,1/4+x
49 -y,-x,-z
50 -x,-z,-y
51 -z,-y,-x
52 1/4-x,3/4-y,1/2+z
53 x,3/4-y,3/4-z
54 1/4-x,1/2+y,3/4-z
55 1/4-z,3/4-x,1/2+y
56 1/4-y,1/2+z,3/4-x
57 z,3/4-x,3/4-y
58 1/4-y,3/4-z,1/2+x
59 1/4-z,1/2+x,3/4-y
60 y,3/4-z,3/4-x
61 -y,1/2-x,1/2-z
62 -y,3/4+x,3/4+z
63 -x,1/2-z,1/2-y
64 -z,1/2-y,1/2-x
65 -z,3/4+y,3/4+x
66 -x,3/4+z,3/4+y
67 3/4-x,1/4-y,1/2+z
68 1/2+x,1/4-y,3/4-z
69 3/4-x,y,3/4-z
70 3/4-z,1/4-x,1/2+y
71 3/4-y,z,3/4-x
72 1/2+z,1/4-x,3/4-y
73 3/4-y,1/4-z,1/2+x
74 3/4-z,x,3/4-y
75 1/2+y,1/4-z,3/4-x
76 1/2-y,-x,1/2-z
77 3/4+y,-x,3/4+z
78 1/2-x,-z,1/2-y
79 1/2-z,-y,1/2-x
80 3/4+x,-z,3/4+y
81 3/4+z,-y,3/4+x
82 3/4-x,3/4-y,z
83 1/2+x,3/4-y,1/4-z
84 3/4-x,1/2+y,1/4-z
85 3/4-z,3/4-x,y
86 3/4-y,1/2+z,1/4-x
87 1/2+z,3/4-x,1/4-y
88 3/4-y,3/4-z,x
89 3/4-z,1/2+x,1/4-y
90 1/2+y,3/4-z,1/4-x
91 1/2-y,1/2-x,-z
92 3/4+y,3/4+x,-z
93 1/2-x,1/2-z,-y
94 1/2-z,1/2-y,-x
95 3/4+x,3/4+z,-y
96 3/4+z,3/4+y,-x
97 -x,-y,-z
98 -1/4+x,-1/4+y,-z
99 -x,-1/4+y,-1/4+z
100 -1/4+x,-y,-1/4+z
101 -z,-x,-y
102 -y,-z,-x
103 -1/4+z,-1/4+x,-y
104 -1/4+y,-z,-1/4+x
105 -z,-1/4+x,-1/4+y
106 -1/4+y,-1/4+z,-x
107 -1/4+z,-x,-1/4+y
108 -y,-1/4+z,-1/4+x
109 -1/4-y,-1/4-x,z
110 -1/4-y,x,-1/4-z
111 y,-1/4-x,-1/4-z
112 -1/4-x,-1/4-z,y
113 z,-1/4-y,-1/4-x
114 -1/4-x,z,-1/4-y
115 -1/4-z,-1/4-y,x
116 x,-1/4-z,-1/4-y
117 -1/4-z,y,-1/4-x
118 -x,-1/2-y,-1/2-z
119 -z,-1/2-x,-1/2-y
120 -y,-1/2-z,-1/2-x
121 -1/4-y,-3/4-x,-1/2+z
122 -1/4-y,-1/2+x,-3/4-z
123 -1/4-x,-3/4-z,-1/2+y
124 -1/4-x,-1/2+z,-3/4-y
125 -1/4-z,-3/4-y,-1/2+x
126 -1/4-z,-1/2+y,-3/4-x
127 -1/2-x,-y,-1/2-z
128 -1/2-z,-x,-1/2-y
129 -1/2-y,-z,-1/2-x
130 -3/4-y,-1/4-x,-1/2+z
131 -1/2+y,-1/4-x,-3/4-z
132 -3/4-x,-1/4-z,-1/2+y
133 -1/2+z,-1/4-y,-3/4-x
134 -3/4-z,-1/4-y,-1/2+x
135 -1/2+x,-1/4-z,-3/4-y
136 -1/2-x,-1/2-y,-z
137 -1/2-z,-1/2-x,-y
138 -1/2-y,-1/2-z,-x
139 -3/4-y,-1/2+x,-1/4-z
140 -1/2+y,-3/4-x,-1/4-z
141 -1/2+z,-3/4-y,-1/4-x
142 -3/4-x,-1/2+z,-1/4-y
143 -1/2+x,-3/4-z,-1/4-y
144 -3/4-z,-1/2+y,-1/4-x
145 y,x,z
146 x,z,y
147 z,y,x
148 -1/4+x,-3/4+y,-1/2-z
149 -x,-3/4+y,-3/4+z
150 -1/4+x,-1/2-y,-3/4+z
151 -1/4+z,-3/4+x,-1/2-y
152 -1/4+y,-1/2-z,-3/4+x
153 -z,-3/4+x,-3/4+y
154 -1/4+y,-3/4+z,-1/2-x
155 -1/4+z,-1/2-x,-3/4+y
156 -y,-3/4+z,-3/4+x
157 y,-1/2+x,-1/2+z
158 y,-3/4-x,-3/4-z
159 x,-1/2+z,-1/2+y
160 z,-1/2+y,-1/2+x
161 z,-3/4-y,-3/4-x
162 x,-3/4-z,-3/4-y
163 -3/4+x,-1/4+y,-1/2-z
164 -1/2-x,-1/4+y,-3/4+z
165 -3/4+x,-y,-3/4+z
166 -3/4+z,-1/4+x,-1/2-y
167 -3/4+y,-z,-3/4+x
168 -1/2-z,-1/4+x,-3/4+y
169 -3/4+y,-1/4+z,-1/2-x
170 -3/4+z,-x,-3/4+y
171 -1/2-y,-1/4+z,-3/4+x
172 -1/2+y,x,-1/2+z
173 -3/4-y,x,-3/4-z
174 -1/2+x,z,-1/2+y
175 -1/2+z,y,-1/2+x
176 -3/4-x,z,-3/4-y
177 -3/4-z,y,-3/4-x
178 -3/4+x,-3/4+y,-z
179 -1/2-x,-3/4+y,-1/4+z
180 -3/4+x,-1/2-y,-1/4+z
181 -3/4+z,-3/4+x,-y
182 -3/4+y,-1/2-z,-1/4+x
183 -1/2-z,-3/4+x,-1/4+y
184 -3/4+y,-3/4+z,-x
185 -3/4+z,-1/2-x,-1/4+y
186 -1/2-y,-3/4+z,-1/4+x
187 -1/2+y,-1/2+x,z
188 -3/4-y,-3/4-x,z
189 -1/2+x,-1/2+z,y
190 -1/2+z,-1/2+y,x
191 -3/4-x,-3/4-z,y
192 -3/4-z,-3/4-y,x
_cell_length_a 19.795(4)
_cell_length_b 19.795(4)
_cell_length_c 19.795(4)
_cell_angle_alpha 90
_cell_angle_beta 90
_cell_angle_gamma 90
_cell_formula_units_Z 8
loop_
_atom_type_symbol
_atom_type_radius_bond
C 0.68
H 0.23
Cl 0.99
Cu 1.52
N 0.68
O 0.68
P 1.05
loop_
_atom_site_label
_atom_site_type_symbol
_atom_site_fract_x
_atom_site_fract_y
_atom_site_fract_z
C1 C 0.25075(10) 0.15137(15) 0.25075(10)
H1 H 0.22580 0.12280 0.28180
H2 H 0.28180 0.12280 0.22580
C2 C 0.33080(15) 0.24509(11) 0.24509(11)
H3 H 0.36070 0.27260 0.27260
H4 H 0.35870 0.21660 0.21660
N1 N 0.29002(8) 0.20160(12) 0.29002(8)
Cu1 Cu 0.12500 0.12500 0.12500
P1 P 0.19090(4) 0.19090(4) 0.19090(4)
Cl1 Cl 0.37500 0.37500 0.37500
O1 O 0.37500 0.12300(14) 0.37500
H5 H 0.35210 0.14800 0.35210
C1D C 0.25075(10) 0.25075(15) 0.15137(10)
C1E C 0.15137(10) 0.25075(15) 0.25075(10)
C1A C -0.00075(10) 0.09863(15) 0.25075(10)
C1F C -0.00075(10) -0.00075(15) 0.15137(10)
C1I C 0.09863(10) -0.00075(15) 0.25075(10)
C1B C 0.25075(10) 0.09863(15) -0.00075(10)
C1H C 0.25075(10) -0.00075(15) 0.09863(10)
C1K C 0.15137(10) -0.00075(15) -0.00075(10)
C1C C -0.00075(10) 0.15137(15) -0.00075(10)
C1J C -0.00075(10) 0.25075(15) 0.09863(10)
C1G C 0.09863(10) 0.25075(15) -0.00075(10)
H1D H 0.28180 0.22580 0.12280
H1OE H 0.22580 0.28180 0.12280
H1E H 0.12280 0.28180 0.22580
H1NE H 0.12280 0.22580 0.28180
H1A H 0.02420 0.12720 0.28180
H1IG H -0.03180 0.12720 0.22580
H1F H -0.03180 0.02420 0.12280
H1HG H 0.02420 -0.03180 0.12280
H1I H 0.12720 -0.03180 0.22580
H1EG H 0.12720 0.02420 0.28180
H1B H 0.22580 0.12720 -0.03180
H1DF H 0.28180 0.12720 0.02420
H1H H 0.28180 0.02420 0.12720
H1EF H 0.22580 -0.03180 0.12720
H1K H 0.12280 -0.03180 0.02420
H1AF H 0.12280 0.02420 -0.03180
H1C H 0.02420 0.12280 -0.03180
H1TF H -0.03180 0.12280 0.02420
H1J H -0.03180 0.22580 0.12720
H1SF H 0.02420 0.28180 0.12720
H1G H 0.12720 0.28180 0.02420
H1PF H 0.12720 0.22580 -0.03180
C2E C 0.24509(15) 0.24509(11) 0.33080(11)
C2D C 0.24509(15) 0.33080(11) 0.24509(11)
C2A C -0.08080(15) 0.00491(11) 0.24509(11)
C2I C 0.00491(15) 0.00491(11) 0.33080(11)
C2F C 0.00491(15) -0.08080(11) 0.24509(11)
C2B C 0.33080(15) 0.00491(11) 0.00491(11)
C2K C 0.24509(15) 0.00491(11) -0.08080(11)
C2H C 0.24509(15) -0.08080(11) 0.00491(11)
C2C C -0.08080(15) 0.24509(11) 0.00491(11)
C2G C 0.00491(15) 0.24509(11) -0.08080(11)
C2J C 0.00491(15) 0.33080(11) 0.00491(11)
H3E H 0.27260 0.27260 0.36070
H3D H 0.27260 0.36070 0.27260
H3A H -0.11070 -0.02260 0.27260
H3I H -0.02260 -0.02260 0.36070
H3F H -0.02260 -0.11070 0.27260
H3B H 0.36070 -0.02260 -0.02260
H3K H 0.27260 -0.02260 -0.11070
H3H H 0.27260 -0.11070 -0.02260
H3C H -0.11070 0.27260 -0.02260
H3G H -0.02260 0.27260 -0.11070
H3J H -0.02260 0.36070 -0.02260
H4E H 0.21660 0.21660 0.35870
H4D H 0.21660 0.35870 0.21660
H4A H -0.10870 0.03340 0.21660
H4I H 0.03340 0.03340 0.35870
H4F H 0.03340 -0.10870 0.21660
H4B H 0.35870 0.03340 0.03340
H4K H 0.21660 0.03340 -0.10870
H4H H 0.21660 -0.10870 0.03340
H4C H -0.10870 0.21660 0.03340
H4G H 0.03340 0.21660 -0.10870
H4J H 0.03340 0.35870 0.03340
N1D N 0.29002(8) 0.29002(12) 0.20160(8)
N1E N 0.20160(8) 0.29002(12) 0.29002(8)
N1A N -0.04002(8) 0.04840(12) 0.29002(8)
N1F N -0.04002(8) -0.04002(12) 0.20160(8)
N1I N 0.04840(8) -0.04002(12) 0.29002(8)
N1B N 0.29002(8) 0.04840(12) -0.04002(8)
N1H N 0.29002(8) -0.04002(12) 0.04840(8)
N1K N 0.20160(8) -0.04002(12) -0.04002(8)
N1C N -0.04002(8) 0.20160(12) -0.04002(8)
N1J N -0.04002(8) 0.29002(12) 0.04840(8)
N1G N 0.04840(8) 0.29002(12) -0.04002(8)
P1A P 0.05910(4) 0.05910(4) 0.19090(4)
P1B P 0.19090(4) 0.05910(4) 0.05910(4)
P1C P 0.05910(4) 0.19090(4) 0.05910(4)
H5LD H 0.39790 0.14800 0.39790
#END

data_CSD_CIF_FIMCOT
_audit_creation_date 1988-03-22
_audit_creation_method CSD-ConQuest-V1
_database_code_CSD FIMCOT
_database_code_depnum_ccdc_archive 'CCDC 1156630'
_chemical_formula_sum 'C4 F12 Ge4 S6'
_chemical_formula_moiety
;
C4 F12 Ge4 S6
;
_journal_coden_Cambridge 48
_journal_volume 120
_journal_year 1987
_journal_page_first 1045
_journal_name_full 'Chem.Ber. '
loop_
_publ_author_name
"A.Haas"
"H.-J.Kutsch"
"C.Kruger"
_chemical_name_systematic
;
1,3,5,7-tetrakis(Trifluoromethyl)-2,4,6,8,9,10-hexathia-1,3,5,7-tetra-germa-ad
amantane
;
_chemical_melting_point 530.15
_cell_volume   3963.816
_exptl_crystal_colour 'colorless'
_exptl_crystal_density_diffrn 2.54
_diffrn_ambient_temperature ?
_diffrn_special_details
;
The study was carried out at room temperature,in the range 283-303K

;
#These two values have been output from a single CSD field.
_refine_ls_R_factor_gt 0.031
_refine_ls_wR_factor_gt 0.031
_symmetry_cell_setting cubic
_symmetry_space_group_name_H-M 'F d 3 m'
_symmetry_Int_Tables_number 227
loop_
_symmetry_equiv_pos_site_id
_symmetry_equiv_pos_as_xyz
1 x,y,z
2 -y,1/4+x,1/4+z
3 x,1/4-y,1/4-z
4 z,x,y
5 3/4-x,1/4-y,1/2+z
6 3/4+y,1/4+x,1/2-z
7 -x,1/4+z,1/4+y
8 3/4+y,-x,3/4+z
9 3/4-x,y,3/4-z
10 3/4-z,1/4-x,1/2+y
11 -y,-x,-z
12 3/4+x,-z,3/4+y
13 z,1/4-x,1/4-y
14 -x,-z,-y
15 3/4-z,x,3/4-y
16 3/4+x,1/4+z,1/2-y
17 y,z,x
18 3/4+z,-y,3/4+x
19 1/2-z,3/4+y,1/4+x
20 3/4+z,3/4+y,-x
21 1/2+y,3/4-z,1/4-x
22 -z,-y,-x
23 1/4-y,z,1/4-x
24 3/4-y,3/4-z,x
25 1/4+z,-y,1/4+x
26 x,1/2+y,1/2+z
27 -y,3/4+x,3/4+z
28 x,3/4-y,3/4-z
29 z,1/2+x,1/2+y
30 3/4-x,3/4-y,z
31 3/4+y,3/4+x,-z
32 -x,3/4+z,3/4+y
33 3/4+y,1/2-x,1/4+z
34 3/4-x,1/2+y,1/4-z
35 3/4-z,3/4-x,y
36 -y,1/2-x,1/2-z
37 3/4+x,1/2-z,1/4+y
38 z,3/4-x,3/4-y
39 -x,1/2-z,1/2-y
40 3/4-z,1/2+x,1/4-y
41 3/4+x,3/4+z,-y
42 y,1/2+z,1/2+x
43 3/4+z,1/2-y,1/4+x
44 1/2-z,1/4+y,3/4+x
45 3/4+z,1/4+y,1/2-x
46 1/2+y,1/4-z,3/4-x
47 -z,1/2-y,1/2-x
48 1/4-y,1/2+z,3/4-x
49 3/4-y,1/4-z,1/2+x
50 1/4+z,1/2-y,3/4+x
51 1/2+x,y,1/2+z
52 1/2-y,1/4+x,3/4+z
53 1/2+x,1/4-y,3/4-z
54 1/2+z,x,1/2+y
55 1/4-x,1/4-y,z
56 1/4+y,1/4+x,-z
57 1/2-x,1/4+z,3/4+y
58 1/4+y,-x,1/4+z
59 1/4-x,y,1/4-z
60 1/4-z,1/4-x,y
61 1/2-y,-x,1/2-z
62 1/4+x,-z,1/4+y
63 1/2+z,1/4-x,3/4-y
64 1/2-x,-z,1/2-y
65 1/4-z,x,1/4-y
66 1/4+x,1/4+z,-y
67 1/2+y,z,1/2+x
68 -z,3/4+y,3/4+x
69 1/4+z,3/4+y,1/2-x
70 y,3/4-z,3/4-x
71 1/2-z,-y,1/2-x
72 3/4-y,z,3/4-x
73 1/4-y,3/4-z,1/2+x
74 1/2+x,1/2+y,z
75 1/2-y,3/4+x,1/4+z
76 1/2+x,3/4-y,1/4-z
77 1/2+z,1/2+x,y
78 1/4-x,3/4-y,1/2+z
79 1/4+y,3/4+x,1/2-z
80 1/2-x,3/4+z,1/4+y
81 1/4+y,1/2-x,3/4+z
82 1/4-x,1/2+y,3/4-z
83 1/4-z,3/4-x,1/2+y
84 1/2-y,1/2-x,-z
85 1/4+x,1/2-z,3/4+y
86 1/2+z,3/4-x,1/4-y
87 1/2-x,1/2-z,-y
88 1/4-z,1/2+x,3/4-y
89 1/4+x,3/4+z,1/2-y
90 1/2+y,1/2+z,x
91 -z,1/4+y,1/4+x
92 1/4+z,1/4+y,-x
93 y,1/4-z,1/4-x
94 1/2-z,1/2-y,-x
95 3/4-y,1/2+z,1/4-x
96 1/4-y,1/4-z,x
97 -x,-y,-z
98 y,-1/4-x,-1/4-z
99 -x,-1/4+y,-1/4+z
100 -z,-x,-y
101 -3/4+x,-1/4+y,-1/2-z
102 -3/4-y,-1/4-x,-1/2+z
103 x,-1/4-z,-1/4-y
104 -3/4-y,x,-3/4-z
105 -3/4+x,-y,-3/4+z
106 -3/4+z,-1/4+x,-1/2-y
107 y,x,z
108 -3/4-x,z,-3/4-y
109 -z,-1/4+x,-1/4+y
110 x,z,y
111 -3/4+z,-x,-3/4+y
112 -3/4-x,-1/4-z,-1/2+y
113 -y,-z,-x
114 -3/4-z,y,-3/4-x
115 -1/2+z,-3/4-y,-1/4-x
116 -3/4-z,-3/4-y,x
117 -1/2-y,-3/4+z,-1/4+x
118 z,y,x
119 -1/4+y,-z,-1/4+x
120 -3/4+y,-3/4+z,-x
121 -1/4-z,y,-1/4-x
122 -x,-1/2-y,-1/2-z
123 y,-3/4-x,-3/4-z
124 -x,-3/4+y,-3/4+z
125 -z,-1/2-x,-1/2-y
126 -3/4+x,-3/4+y,-z
127 -3/4-y,-3/4-x,z
128 x,-3/4-z,-3/4-y
129 -3/4-y,-1/2+x,-1/4-z
130 -3/4+x,-1/2-y,-1/4+z
131 -3/4+z,-3/4+x,-y
132 y,-1/2+x,-1/2+z
133 -3/4-x,-1/2+z,-1/4-y
134 -z,-3/4+x,-3/4+y
135 x,-1/2+z,-1/2+y
136 -3/4+z,-1/2-x,-1/4+y
137 -3/4-x,-3/4-z,y
138 -y,-1/2-z,-1/2-x
139 -3/4-z,-1/2+y,-1/4-x
140 -1/2+z,-1/4-y,-3/4-x
141 -3/4-z,-1/4-y,-1/2+x
142 -1/2-y,-1/4+z,-3/4+x
143 z,-1/2+y,-1/2+x
144 -1/4+y,-1/2-z,-3/4+x
145 -3/4+y,-1/4+z,-1/2-x
146 -1/4-z,-1/2+y,-3/4-x
147 -1/2-x,-y,-1/2-z
148 -1/2+y,-1/4-x,-3/4-z
149 -1/2-x,-1/4+y,-3/4+z
150 -1/2-z,-x,-1/2-y
151 -1/4+x,-1/4+y,-z
152 -1/4-y,-1/4-x,z
153 -1/2+x,-1/4-z,-3/4-y
154 -1/4-y,x,-1/4-z
155 -1/4+x,-y,-1/4+z
156 -1/4+z,-1/4+x,-y
157 -1/2+y,x,-1/2+z
158 -1/4-x,z,-1/4-y
159 -1/2-z,-1/4+x,-3/4+y
160 -1/2+x,z,-1/2+y
161 -1/4+z,-x,-1/4+y
162 -1/4-x,-1/4-z,y
163 -1/2-y,-z,-1/2-x
164 z,-3/4-y,-3/4-x
165 -1/4-z,-3/4-y,-1/2+x
166 -y,-3/4+z,-3/4+x
167 -1/2+z,y,-1/2+x
168 -3/4+y,-z,-3/4+x
169 -1/4+y,-3/4+z,-1/2-x
170 -1/2-x,-1/2-y,-z
171 -1/2+y,-3/4-x,-1/4-z
172 -1/2-x,-3/4+y,-1/4+z
173 -1/2-z,-1/2-x,-y
174 -1/4+x,-3/4+y,-1/2-z
175 -1/4-y,-3/4-x,-1/2+z
176 -1/2+x,-3/4-z,-1/4-y
177 -1/4-y,-1/2+x,-3/4-z
178 -1/4+x,-1/2-y,-3/4+z
179 -1/4+z,-3/4+x,-1/2-y
180 -1/2+y,-1/2+x,z
181 -1/4-x,-1/2+z,-3/4-y
182 -1/2-z,-3/4+x,-1/4+y
183 -1/2+x,-1/2+z,y
184 -1/4+z,-1/2-x,-3/4+y
185 -1/4-x,-3/4-z,-1/2+y
186 -1/2-y,-1/2-z,-x
187 z,-1/4-y,-1/4-x
188 -1/4-z,-1/4-y,x
189 -y,-1/4+z,-1/4+x
190 -1/2+z,-1/2+y,x
191 -3/4+y,-1/2-z,-1/4+x
192 -1/4+y,-1/4+z,-x
_cell_length_a 15.826(3)
_cell_length_b 15.826(3)
_cell_length_c 15.826(3)
_cell_angle_alpha 90
_cell_angle_beta 90
_cell_angle_gamma 90
_cell_formula_units_Z 8
loop_
_atom_type_symbol
_atom_type_radius_bond
C 0.68
F 0.64
Ge 1.17
S 1.02
loop_
_atom_site_label
_atom_site_type_symbol
_atom_site_fract_x
_atom_site_fract_y
_atom_site_fract_z
Ge1 Ge 0.2006(1) 0.2006(1) 0.2006(1)
S1 S 0.2904(2) 0.12500 0.12500
F1 F 0.2604(2) 0.2604(2) 0.3542(3)
C1 C 0.2734(4) 0.2734(4) 0.2734(4)
Ge1B Ge 0.2006(1) 0.0494(1) 0.0494(1)
S1L S 0.1250(2) -0.04040 0.12500
Ge1GB Ge 0.0494(1) 0.0494(1) 0.2006(1)
S1QC S 0.1250(2) 0.12500 0.29040
S1C S 0.1250(2) 0.29040 0.12500
Ge1LB Ge 0.0494(1) 0.2006(1) 0.0494(1)
S1V S 0.1250(2) 0.12500 -0.04040
C1B C 0.2734(4) -0.0234(4) -0.0234(4)
F1B F 0.2604(2) -0.0104(2) -0.1042(3)
F1NC F 0.2604(2) -0.1042(2) -0.0104(3)
F1L F 0.3542(2) -0.0104(2) -0.0104(3)
S1FB S -0.0404(2) 0.12500 0.12500
C1GB C -0.0234(4) -0.0234(4) 0.2734(4)
F1GB F -0.1042(2) -0.0104(2) 0.2604(3)
F1BB F -0.0104(2) -0.0104(2) 0.3542(3)
F1QC F -0.0104(2) -0.1042(2) 0.2604(3)
C1LB C -0.0234(4) 0.2734(4) -0.0234(4)
F1LB F -0.1042(2) 0.2604(2) -0.0104(3)
F1FB F -0.0104(2) 0.2604(2) -0.1042(3)
F1V F -0.0104(2) 0.3542(2) -0.0104(3)
F1P F 0.2604(2) 0.3542(2) 0.2604(3)
F1C F 0.3542(2) 0.2604(2) 0.2604(3)
#END

data_CSD_CIF_FIMCUZ
_audit_creation_date 1988-03-22
_audit_creation_method CSD-ConQuest-V1
_database_code_CSD FIMCUZ
_database_code_depnum_ccdc_archive 'CCDC 1156631'
_chemical_formula_sum 'C4 F12 Ge4 Se6'
_chemical_formula_moiety
;
C4 F12 Ge4 Se6
;
_journal_coden_Cambridge 48
_journal_volume 120
_journal_year 1987
_journal_page_first 1045
_journal_name_full 'Chem.Ber. '
loop_
_publ_author_name
"A.Haas"
"H.-J.Kutsch"
"C.Kruger"
_chemical_name_systematic
;
1,3,5,7-tetrakis(Trifluoromethyl)-2,4,6,8,9,10-hexaselena-1,3,5,7-tetra-germa-
adamantane
;
_chemical_melting_point 553.15
_cell_volume   4139.159
_exptl_crystal_colour 'red'
_exptl_crystal_density_diffrn 3.38
_diffrn_ambient_temperature ?
_diffrn_special_details
;
The study was carried out at room temperature,in the range 283-303K

;
#These two values have been output from a single CSD field.
_refine_ls_R_factor_gt 0.038
_refine_ls_wR_factor_gt 0.038
_symmetry_cell_setting cubic
_symmetry_space_group_name_H-M 'F d 3 m'
_symmetry_Int_Tables_number 227
loop_
_symmetry_equiv_pos_site_id
_symmetry_equiv_pos_as_xyz
1 x,y,z
2 -y,1/4+x,1/4+z
3 x,1/4-y,1/4-z
4 z,x,y
5 3/4-x,1/4-y,1/2+z
6 3/4+y,1/4+x,1/2-z
7 -x,1/4+z,1/4+y
8 3/4+y,-x,3/4+z
9 3/4-x,y,3/4-z
10 3/4-z,1/4-x,1/2+y
11 -y,-x,-z
12 3/4+x,-z,3/4+y
13 z,1/4-x,1/4-y
14 -x,-z,-y
15 3/4-z,x,3/4-y
16 3/4+x,1/4+z,1/2-y
17 y,z,x
18 3/4+z,-y,3/4+x
19 1/2-z,3/4+y,1/4+x
20 3/4+z,3/4+y,-x
21 1/2+y,3/4-z,1/4-x
22 -z,-y,-x
23 1/4-y,z,1/4-x
24 3/4-y,3/4-z,x
25 1/4+z,-y,1/4+x
26 x,1/2+y,1/2+z
27 -y,3/4+x,3/4+z
28 x,3/4-y,3/4-z
29 z,1/2+x,1/2+y
30 3/4-x,3/4-y,z
31 3/4+y,3/4+x,-z
32 -x,3/4+z,3/4+y
33 3/4+y,1/2-x,1/4+z
34 3/4-x,1/2+y,1/4-z
35 3/4-z,3/4-x,y
36 -y,1/2-x,1/2-z
37 3/4+x,1/2-z,1/4+y
38 z,3/4-x,3/4-y
39 -x,1/2-z,1/2-y
40 3/4-z,1/2+x,1/4-y
41 3/4+x,3/4+z,-y
42 y,1/2+z,1/2+x
43 3/4+z,1/2-y,1/4+x
44 1/2-z,1/4+y,3/4+x
45 3/4+z,1/4+y,1/2-x
46 1/2+y,1/4-z,3/4-x
47 -z,1/2-y,1/2-x
48 1/4-y,1/2+z,3/4-x
49 3/4-y,1/4-z,1/2+x
50 1/4+z,1/2-y,3/4+x
51 1/2+x,y,1/2+z
52 1/2-y,1/4+x,3/4+z
53 1/2+x,1/4-y,3/4-z
54 1/2+z,x,1/2+y
55 1/4-x,1/4-y,z
56 1/4+y,1/4+x,-z
57 1/2-x,1/4+z,3/4+y
58 1/4+y,-x,1/4+z
59 1/4-x,y,1/4-z
60 1/4-z,1/4-x,y
61 1/2-y,-x,1/2-z
62 1/4+x,-z,1/4+y
63 1/2+z,1/4-x,3/4-y
64 1/2-x,-z,1/2-y
65 1/4-z,x,1/4-y
66 1/4+x,1/4+z,-y
67 1/2+y,z,1/2+x
68 -z,3/4+y,3/4+x
69 1/4+z,3/4+y,1/2-x
70 y,3/4-z,3/4-x
71 1/2-z,-y,1/2-x
72 3/4-y,z,3/4-x
73 1/4-y,3/4-z,1/2+x
74 1/2+x,1/2+y,z
75 1/2-y,3/4+x,1/4+z
76 1/2+x,3/4-y,1/4-z
77 1/2+z,1/2+x,y
78 1/4-x,3/4-y,1/2+z
79 1/4+y,3/4+x,1/2-z
80 1/2-x,3/4+z,1/4+y
81 1/4+y,1/2-x,3/4+z
82 1/4-x,1/2+y,3/4-z
83 1/4-z,3/4-x,1/2+y
84 1/2-y,1/2-x,-z
85 1/4+x,1/2-z,3/4+y
86 1/2+z,3/4-x,1/4-y
87 1/2-x,1/2-z,-y
88 1/4-z,1/2+x,3/4-y
89 1/4+x,3/4+z,1/2-y
90 1/2+y,1/2+z,x
91 -z,1/4+y,1/4+x
92 1/4+z,1/4+y,-x
93 y,1/4-z,1/4-x
94 1/2-z,1/2-y,-x
95 3/4-y,1/2+z,1/4-x
96 1/4-y,1/4-z,x
97 -x,-y,-z
98 y,-1/4-x,-1/4-z
99 -x,-1/4+y,-1/4+z
100 -z,-x,-y
101 -3/4+x,-1/4+y,-1/2-z
102 -3/4-y,-1/4-x,-1/2+z
103 x,-1/4-z,-1/4-y
104 -3/4-y,x,-3/4-z
105 -3/4+x,-y,-3/4+z
106 -3/4+z,-1/4+x,-1/2-y
107 y,x,z
108 -3/4-x,z,-3/4-y
109 -z,-1/4+x,-1/4+y
110 x,z,y
111 -3/4+z,-x,-3/4+y
112 -3/4-x,-1/4-z,-1/2+y
113 -y,-z,-x
114 -3/4-z,y,-3/4-x
115 -1/2+z,-3/4-y,-1/4-x
116 -3/4-z,-3/4-y,x
117 -1/2-y,-3/4+z,-1/4+x
118 z,y,x
119 -1/4+y,-z,-1/4+x
120 -3/4+y,-3/4+z,-x
121 -1/4-z,y,-1/4-x
122 -x,-1/2-y,-1/2-z
123 y,-3/4-x,-3/4-z
124 -x,-3/4+y,-3/4+z
125 -z,-1/2-x,-1/2-y
126 -3/4+x,-3/4+y,-z
127 -3/4-y,-3/4-x,z
128 x,-3/4-z,-3/4-y
129 -3/4-y,-1/2+x,-1/4-z
130 -3/4+x,-1/2-y,-1/4+z
131 -3/4+z,-3/4+x,-y
132 y,-1/2+x,-1/2+z
133 -3/4-x,-1/2+z,-1/4-y
134 -z,-3/4+x,-3/4+y
135 x,-1/2+z,-1/2+y
136 -3/4+z,-1/2-x,-1/4+y
137 -3/4-x,-3/4-z,y
138 -y,-1/2-z,-1/2-x
139 -3/4-z,-1/2+y,-1/4-x
140 -1/2+z,-1/4-y,-3/4-x
141 -3/4-z,-1/4-y,-1/2+x
142 -1/2-y,-1/4+z,-3/4+x
143 z,-1/2+y,-1/2+x
144 -1/4+y,-1/2-z,-3/4+x
145 -3/4+y,-1/4+z,-1/2-x
146 -1/4-z,-1/2+y,-3/4-x
147 -1/2-x,-y,-1/2-z
148 -1/2+y,-1/4-x,-3/4-z
149 -1/2-x,-1/4+y,-3/4+z
150 -1/2-z,-x,-1/2-y
151 -1/4+x,-1/4+y,-z
152 -1/4-y,-1/4-x,z
153 -1/2+x,-1/4-z,-3/4-y
154 -1/4-y,x,-1/4-z
155 -1/4+x,-y,-1/4+z
156 -1/4+z,-1/4+x,-y
157 -1/2+y,x,-1/2+z
158 -1/4-x,z,-1/4-y
159 -1/2-z,-1/4+x,-3/4+y
160 -1/2+x,z,-1/2+y
161 -1/4+z,-x,-1/4+y
162 -1/4-x,-1/4-z,y
163 -1/2-y,-z,-1/2-x
164 z,-3/4-y,-3/4-x
165 -1/4-z,-3/4-y,-1/2+x
166 -y,-3/4+z,-3/4+x
167 -1/2+z,y,-1/2+x
168 -3/4+y,-z,-3/4+x
169 -1/4+y,-3/4+z,-1/2-x
170 -1/2-x,-1/2-y,-z
171 -1/2+y,-3/4-x,-1/4-z
172 -1/2-x,-3/4+y,-1/4+z
173 -1/2-z,-1/2-x,-y
174 -1/4+x,-3/4+y,-1/2-z
175 -1/4-y,-3/4-x,-1/2+z
176 -1/2+x,-3/4-z,-1/4-y
177 -1/4-y,-1/2+x,-3/4-z
178 -1/4+x,-1/2-y,-3/4+z
179 -1/4+z,-3/4+x,-1/2-y
180 -1/2+y,-1/2+x,z
181 -1/4-x,-1/2+z,-3/4-y
182 -1/2-z,-3/4+x,-1/4+y
183 -1/2+x,-1/2+z,y
184 -1/4+z,-1/2-x,-3/4+y
185 -1/4-x,-3/4-z,-1/2+y
186 -1/2-y,-1/2-z,-x
187 z,-1/4-y,-1/4-x
188 -1/4-z,-1/4-y,x
189 -y,-1/4+z,-1/4+x
190 -1/2+z,-1/2+y,x
191 -3/4+y,-1/2-z,-1/4+x
192 -1/4+y,-1/4+z,-x
_cell_length_a 16.056(5)
_cell_length_b 16.056(5)
_cell_length_c 16.056(5)
_cell_angle_alpha 90
_cell_angle_beta 90
_cell_angle_gamma 90
_cell_formula_units_Z 8
loop_
_atom_type_symbol
_atom_type_radius_bond
C 0.68
F 0.64
Ge 1.17
Se 1.22
loop_
_atom_site_label
_atom_site_type_symbol
_atom_site_fract_x
_atom_site_fract_y
_atom_site_fract_z
Ge1 Ge 0.2025(1) 0.2025(1) 0.2025(1)
Se1 Se 0.2989(1) 0.12500 0.12500
F1 F 0.2617(3) 0.2617(3) 0.3549(3)
C1 C 0.2751(6) 0.2751(6) 0.2751(6)
Ge1B Ge 0.2025(1) 0.0475(1) 0.0475(1)
Se1L Se 0.1250(1) -0.04890 0.12500
Ge1GB Ge 0.0475(1) 0.0475(1) 0.2025(1)
Se1QC Se 0.1250(1) 0.12500 0.29890
Se1C Se 0.1250(1) 0.29890 0.12500
Ge1LB Ge 0.0475(1) 0.2025(1) 0.0475(1)
Se1V Se 0.1250(1) 0.12500 -0.04890
C1B C 0.2751(6) -0.0251(6) -0.0251(6)
F1B F 0.2617(3) -0.0117(3) -0.1049(3)
F1NC F 0.2617(3) -0.1049(3) -0.0117(3)
F1L F 0.3549(3) -0.0117(3) -0.0117(3)
Se1FB Se -0.0489(1) 0.12500 0.12500
C1GB C -0.0251(6) -0.0251(6) 0.2751(6)
F1GB F -0.1049(3) -0.0117(3) 0.2617(3)
F1BB F -0.0117(3) -0.0117(3) 0.3549(3)
F1QC F -0.0117(3) -0.1049(3) 0.2617(3)
C1LB C -0.0251(6) 0.2751(6) -0.0251(6)
F1LB F -0.1049(3) 0.2617(3) -0.0117(3)
F1FB F -0.0117(3) 0.2617(3) -0.1049(3)
F1V F -0.0117(3) 0.3549(3) -0.0117(3)
F1P F 0.2617(3) 0.3549(3) 0.2617(3)
F1C F 0.3549(3) 0.2617(3) 0.2617(3)
#END

data_CSD_CIF_ZNOXAC01
_audit_creation_date 1989-02-16
_audit_creation_method CSD-ConQuest-V1
_database_code_CSD ZNOXAC01
_database_code_depnum_ccdc_archive 'CCDC 1313802'
_chemical_formula_sum 'C12 H18 O13 Zn4'
_chemical_formula_moiety
;
C12 H18 O13 Zn4
;
_journal_coden_Cambridge 3
_journal_volume 41
_journal_year 1987
_journal_page_first 548
_journal_name_full 'Acta Chem.Scand. '
loop_
_publ_author_name
"L.Hiltunen"
"M.Leskela"
"M.Makela"
"L.Niinisto"
_chemical_name_systematic
;
hexakis(\m~2~-Acetato-O,O')-(\m~4~-oxo)-tetra-zinc
;
_chemical_melting_point 525.15
_cell_volume   4412.558
_exptl_crystal_colour 'white'
_exptl_crystal_density_diffrn 1.902
_exptl_special_details
;
Melting point range 525.15-526.15K
Moisture- sensitive
Isostructural with the Be analogue
;
_diffrn_ambient_temperature ?
_diffrn_special_details
;
The study was carried out at room temperature,in the range 283-303K

;
#These two values have been output from a single CSD field.
_refine_ls_R_factor_gt 0.034
_refine_ls_wR_factor_gt 0.034
_symmetry_cell_setting cubic
_symmetry_space_group_name_H-M 'F d 3 m'
_symmetry_Int_Tables_number 227
loop_
_symmetry_equiv_pos_site_id
_symmetry_equiv_pos_as_xyz
1 x,y,z
2 -y,1/4+x,1/4+z
3 x,1/4-y,1/4-z
4 z,x,y
5 3/4-x,1/4-y,1/2+z
6 3/4+y,1/4+x,1/2-z
7 -x,1/4+z,1/4+y
8 3/4+y,-x,3/4+z
9 3/4-x,y,3/4-z
10 3/4-z,1/4-x,1/2+y
11 -y,-x,-z
12 3/4+x,-z,3/4+y
13 z,1/4-x,1/4-y
14 -x,-z,-y
15 3/4-z,x,3/4-y
16 3/4+x,1/4+z,1/2-y
17 y,z,x
18 3/4+z,-y,3/4+x
19 1/2-z,3/4+y,1/4+x
20 3/4+z,3/4+y,-x
21 1/2+y,3/4-z,1/4-x
22 -z,-y,-x
23 1/4-y,z,1/4-x
24 3/4-y,3/4-z,x
25 1/4+z,-y,1/4+x
26 x,1/2+y,1/2+z
27 -y,3/4+x,3/4+z
28 x,3/4-y,3/4-z
29 z,1/2+x,1/2+y
30 3/4-x,3/4-y,z
31 3/4+y,3/4+x,-z
32 -x,3/4+z,3/4+y
33 3/4+y,1/2-x,1/4+z
34 3/4-x,1/2+y,1/4-z
35 3/4-z,3/4-x,y
36 -y,1/2-x,1/2-z
37 3/4+x,1/2-z,1/4+y
38 z,3/4-x,3/4-y
39 -x,1/2-z,1/2-y
40 3/4-z,1/2+x,1/4-y
41 3/4+x,3/4+z,-y
42 y,1/2+z,1/2+x
43 3/4+z,1/2-y,1/4+x
44 1/2-z,1/4+y,3/4+x
45 3/4+z,1/4+y,1/2-x
46 1/2+y,1/4-z,3/4-x
47 -z,1/2-y,1/2-x
48 1/4-y,1/2+z,3/4-x
49 3/4-y,1/4-z,1/2+x
50 1/4+z,1/2-y,3/4+x
51 1/2+x,y,1/2+z
52 1/2-y,1/4+x,3/4+z
53 1/2+x,1/4-y,3/4-z
54 1/2+z,x,1/2+y
55 1/4-x,1/4-y,z
56 1/4+y,1/4+x,-z
57 1/2-x,1/4+z,3/4+y
58 1/4+y,-x,1/4+z
59 1/4-x,y,1/4-z
60 1/4-z,1/4-x,y
61 1/2-y,-x,1/2-z
62 1/4+x,-z,1/4+y
63 1/2+z,1/4-x,3/4-y
64 1/2-x,-z,1/2-y
65 1/4-z,x,1/4-y
66 1/4+x,1/4+z,-y
67 1/2+y,z,1/2+x
68 -z,3/4+y,3/4+x
69 1/4+z,3/4+y,1/2-x
70 y,3/4-z,3/4-x
71 1/2-z,-y,1/2-x
72 3/4-y,z,3/4-x
73 1/4-y,3/4-z,1/2+x
74 1/2+x,1/2+y,z
75 1/2-y,3/4+x,1/4+z
76 1/2+x,3/4-y,1/4-z
77 1/2+z,1/2+x,y
78 1/4-x,3/4-y,1/2+z
79 1/4+y,3/4+x,1/2-z
80 1/2-x,3/4+z,1/4+y
81 1/4+y,1/2-x,3/4+z
82 1/4-x,1/2+y,3/4-z
83 1/4-z,3/4-x,1/2+y
84 1/2-y,1/2-x,-z
85 1/4+x,1/2-z,3/4+y
86 1/2+z,3/4-x,1/4-y
87 1/2-x,1/2-z,-y
88 1/4-z,1/2+x,3/4-y
89 1/4+x,3/4+z,1/2-y
90 1/2+y,1/2+z,x
91 -z,1/4+y,1/4+x
92 1/4+z,1/4+y,-x
93 y,1/4-z,1/4-x
94 1/2-z,1/2-y,-x
95 3/4-y,1/2+z,1/4-x
96 1/4-y,1/4-z,x
97 -x,-y,-z
98 y,-1/4-x,-1/4-z
99 -x,-1/4+y,-1/4+z
100 -z,-x,-y
101 -3/4+x,-1/4+y,-1/2-z
102 -3/4-y,-1/4-x,-1/2+z
103 x,-1/4-z,-1/4-y
104 -3/4-y,x,-3/4-z
105 -3/4+x,-y,-3/4+z
106 -3/4+z,-1/4+x,-1/2-y
107 y,x,z
108 -3/4-x,z,-3/4-y
109 -z,-1/4+x,-1/4+y
110 x,z,y
111 -3/4+z,-x,-3/4+y
112 -3/4-x,-1/4-z,-1/2+y
113 -y,-z,-x
114 -3/4-z,y,-3/4-x
115 -1/2+z,-3/4-y,-1/4-x
116 -3/4-z,-3/4-y,x
117 -1/2-y,-3/4+z,-1/4+x
118 z,y,x
119 -1/4+y,-z,-1/4+x
120 -3/4+y,-3/4+z,-x
121 -1/4-z,y,-1/4-x
122 -x,-1/2-y,-1/2-z
123 y,-3/4-x,-3/4-z
124 -x,-3/4+y,-3/4+z
125 -z,-1/2-x,-1/2-y
126 -3/4+x,-3/4+y,-z
127 -3/4-y,-3/4-x,z
128 x,-3/4-z,-3/4-y
129 -3/4-y,-1/2+x,-1/4-z
130 -3/4+x,-1/2-y,-1/4+z
131 -3/4+z,-3/4+x,-y
132 y,-1/2+x,-1/2+z
133 -3/4-x,-1/2+z,-1/4-y
134 -z,-3/4+x,-3/4+y
135 x,-1/2+z,-1/2+y
136 -3/4+z,-1/2-x,-1/4+y
137 -3/4-x,-3/4-z,y
138 -y,-1/2-z,-1/2-x
139 -3/4-z,-1/2+y,-1/4-x
140 -1/2+z,-1/4-y,-3/4-x
141 -3/4-z,-1/4-y,-1/2+x
142 -1/2-y,-1/4+z,-3/4+x
143 z,-1/2+y,-1/2+x
144 -1/4+y,-1/2-z,-3/4+x
145 -3/4+y,-1/4+z,-1/2-x
146 -1/4-z,-1/2+y,-3/4-x
147 -1/2-x,-y,-1/2-z
148 -1/2+y,-1/4-x,-3/4-z
149 -1/2-x,-1/4+y,-3/4+z
150 -1/2-z,-x,-1/2-y
151 -1/4+x,-1/4+y,-z
152 -1/4-y,-1/4-x,z
153 -1/2+x,-1/4-z,-3/4-y
154 -1/4-y,x,-1/4-z
155 -1/4+x,-y,-1/4+z
156 -1/4+z,-1/4+x,-y
157 -1/2+y,x,-1/2+z
158 -1/4-x,z,-1/4-y
159 -1/2-z,-1/4+x,-3/4+y
160 -1/2+x,z,-1/2+y
161 -1/4+z,-x,-1/4+y
162 -1/4-x,-1/4-z,y
163 -1/2-y,-z,-1/2-x
164 z,-3/4-y,-3/4-x
165 -1/4-z,-3/4-y,-1/2+x
166 -y,-3/4+z,-3/4+x
167 -1/2+z,y,-1/2+x
168 -3/4+y,-z,-3/4+x
169 -1/4+y,-3/4+z,-1/2-x
170 -1/2-x,-1/2-y,-z
171 -1/2+y,-3/4-x,-1/4-z
172 -1/2-x,-3/4+y,-1/4+z
173 -1/2-z,-1/2-x,-y
174 -1/4+x,-3/4+y,-1/2-z
175 -1/4-y,-3/4-x,-1/2+z
176 -1/2+x,-3/4-z,-1/4-y
177 -1/4-y,-1/2+x,-3/4-z
178 -1/4+x,-1/2-y,-3/4+z
179 -1/4+z,-3/4+x,-1/2-y
180 -1/2+y,-1/2+x,z
181 -1/4-x,-1/2+z,-3/4-y
182 -1/2-z,-3/4+x,-1/4+y
183 -1/2+x,-1/2+z,y
184 -1/4+z,-1/2-x,-3/4+y
185 -1/4-x,-3/4-z,-1/2+y
186 -1/2-y,-1/2-z,-x
187 z,-1/4-y,-1/4-x
188 -1/4-z,-1/4-y,x
189 -y,-1/4+z,-1/4+x
190 -1/2+z,-1/2+y,x
191 -3/4+y,-1/2-z,-1/4+x
192 -1/4+y,-1/4+z,-x
_cell_length_a 16.402(1)
_cell_length_b 16.402(1)
_cell_length_c 16.402(1)
_cell_angle_alpha 90
_cell_angle_beta 90
_cell_angle_gamma 90
_cell_formula_units_Z 8
loop_
_atom_type_symbol
_atom_type_radius_bond
C 0.68
O 0.68
Zn 1.37
loop_
_atom_site_label
_atom_site_type_symbol
_atom_site_fract_x
_atom_site_fract_y
_atom_site_fract_z
Zn1 Zn 0.05685(4) 0.05685(4) 0.05685(4)
O1 O 0.12500 0.12500 0.12500
O2 O 0.0774(2) 0.0774(2) -0.0582(2)
C1 C 0.12500 0.12500 -0.0942(5)
C2 C 0.12500 0.12500 -0.1855(5)
Zn1B Zn 0.05685(4) 0.19315(4) 0.19315(4)
O2B O 0.0774(2) 0.1726(2) 0.3082(2)
C1B C 0.12500 0.12500 0.3442(5)
O2FB O 0.1726(2) 0.0774(2) 0.3082(2)
Zn1FB Zn 0.19315(4) 0.05685(4) 0.19315(4)
Zn1QC Zn 0.19315(4) 0.19315(4) 0.05685(4)
O2QC O 0.1726(2) 0.3082(2) 0.0774(2)
C1QC C 0.12500 0.34420 0.1250(5)
O2NC O 0.0774(2) 0.3082(2) 0.1726(2)
O2L O -0.0582(2) 0.1726(2) 0.1726(2)
C1L C -0.09420 0.12500 0.1250(5)
O2C O -0.0582(2) 0.0774(2) 0.0774(2)
O2BB O 0.1726(2) 0.1726(2) -0.0582(2)
O2GB O 0.3082(2) 0.1726(2) 0.0774(2)
C1GB C 0.34420 0.12500 0.1250(5)
O2LB O 0.3082(2) 0.0774(2) 0.1726(2)
O2V O 0.1726(2) -0.0582(2) 0.1726(2)
C1V C 0.12500 -0.09420 0.1250(5)
O2P O 0.0774(2) -0.0582(2) 0.0774(2)
C2V C 0.12500 -0.18550 0.1250(5)
C2GB C 0.43550 0.12500 0.1250(5)
C2L C -0.18550 0.12500 0.1250(5)
C2QC C 0.12500 0.43550 0.1250(5)
C2B C 0.12500 0.12500 0.4355(5)
#END
