
#######################################################################
#
#                 Cambridge Crystallographic Data Centre
#                                CCDC
#
#######################################################################
#
# If this CIF has been generated from an entry in the Cambridge
# Structural Database, then it will include bibliographic, chemical,
# crystal, experimental, refinement or atomic coordinate data resulting
# from the CCDC's data processing and validation procedures.
#
#######################################################################

data_CSD_CIF_DOPSIK
_audit_creation_date 1987-03-27
_audit_creation_method CSD-ConQuest-V1
_database_code_CSD DOPSIK
_database_code_depnum_ccdc_archive 'CCDC 1144300'
_chemical_formula_sum 'C20 H20'
_chemical_formula_moiety
;
C20 H20
;
_journal_coden_Cambridge 4
_journal_volume 108
_journal_year 1986
_journal_page_first 1343
_journal_name_full 'J.Am.Chem.Soc. '
loop_
_publ_author_name
"J.C.Gallucci"
"C.W.Doecke"
"L.A.Paquette"
_chemical_name_systematic
;
Dodecahedrane
;
_cell_volume   1194.390
_exptl_crystal_colour 'colorless'
_exptl_crystal_density_diffrn 1.448
_exptl_special_details
;
Isomorphous with secododecahedrene which was disordered

;
_diffrn_ambient_temperature ?
_diffrn_special_details
;
The study was carried out at room temperature,in the range 283-303K
twin

;
#These two values have been output from a single CSD field.
_refine_ls_R_factor_gt 0.049
_refine_ls_wR_factor_gt 0.049
_symmetry_cell_setting cubic
_symmetry_space_group_name_H-M 'F m -3'
_symmetry_Int_Tables_number 202
loop_
_symmetry_equiv_pos_site_id
_symmetry_equiv_pos_as_xyz
1 x,y,z
2 -x,-y,z
3 -x,y,-z
4 x,-y,-z
5 z,x,y
6 z,-x,-y
7 -z,-x,y
8 -z,x,-y
9 y,z,x
10 -y,z,-x
11 y,-z,-x
12 -y,-z,x
13 x,1/2+y,1/2+z
14 -x,1/2-y,1/2+z
15 -x,1/2+y,1/2-z
16 x,1/2-y,1/2-z
17 z,1/2+x,1/2+y
18 z,1/2-x,1/2-y
19 -z,1/2-x,1/2+y
20 -z,1/2+x,1/2-y
21 y,1/2+z,1/2+x
22 -y,1/2+z,1/2-x
23 y,1/2-z,1/2-x
24 -y,1/2-z,1/2+x
25 1/2+x,y,1/2+z
26 1/2-x,-y,1/2+z
27 1/2-x,y,1/2-z
28 1/2+x,-y,1/2-z
29 1/2+z,x,1/2+y
30 1/2+z,-x,1/2-y
31 1/2-z,-x,1/2+y
32 1/2-z,x,1/2-y
33 1/2+y,z,1/2+x
34 1/2-y,z,1/2-x
35 1/2+y,-z,1/2-x
36 1/2-y,-z,1/2+x
37 1/2+x,1/2+y,z
38 1/2-x,1/2-y,z
39 1/2-x,1/2+y,-z
40 1/2+x,1/2-y,-z
41 1/2+z,1/2+x,y
42 1/2+z,1/2-x,-y
43 1/2-z,1/2-x,y
44 1/2-z,1/2+x,-y
45 1/2+y,1/2+z,x
46 1/2-y,1/2+z,-x
47 1/2+y,1/2-z,-x
48 1/2-y,1/2-z,x
49 -x,-y,-z
50 x,y,-z
51 x,-y,z
52 -x,y,z
53 -z,-x,-y
54 -z,x,y
55 z,x,-y
56 z,-x,y
57 -y,-z,-x
58 y,-z,x
59 -y,z,x
60 y,z,-x
61 -x,-1/2-y,-1/2-z
62 x,-1/2+y,-1/2-z
63 x,-1/2-y,-1/2+z
64 -x,-1/2+y,-1/2+z
65 -z,-1/2-x,-1/2-y
66 -z,-1/2+x,-1/2+y
67 z,-1/2+x,-1/2-y
68 z,-1/2-x,-1/2+y
69 -y,-1/2-z,-1/2-x
70 y,-1/2-z,-1/2+x
71 -y,-1/2+z,-1/2+x
72 y,-1/2+z,-1/2-x
73 -1/2-x,-y,-1/2-z
74 -1/2+x,y,-1/2-z
75 -1/2+x,-y,-1/2+z
76 -1/2-x,y,-1/2+z
77 -1/2-z,-x,-1/2-y
78 -1/2-z,x,-1/2+y
79 -1/2+z,x,-1/2-y
80 -1/2+z,-x,-1/2+y
81 -1/2-y,-z,-1/2-x
82 -1/2+y,-z,-1/2+x
83 -1/2-y,z,-1/2+x
84 -1/2+y,z,-1/2-x
85 -1/2-x,-1/2-y,-z
86 -1/2+x,-1/2+y,-z
87 -1/2+x,-1/2-y,z
88 -1/2-x,-1/2+y,z
89 -1/2-z,-1/2-x,-y
90 -1/2-z,-1/2+x,y
91 -1/2+z,-1/2+x,-y
92 -1/2+z,-1/2-x,y
93 -1/2-y,-1/2-z,-x
94 -1/2+y,-1/2-z,x
95 -1/2-y,-1/2+z,x
96 -1/2+y,-1/2+z,-x
_cell_length_a 10.610(3)
_cell_length_b 10.610(3)
_cell_length_c 10.610(3)
_cell_angle_alpha 90
_cell_angle_beta 90
_cell_angle_gamma 90
_cell_formula_units_Z 4
loop_
_atom_type_symbol
_atom_type_radius_bond
C 0.68
loop_
_atom_site_label
_atom_site_type_symbol
_atom_site_fract_x
_atom_site_fract_y
_atom_site_fract_z
C1 C 0.00000 0.1902(2) 0.0723(2)
C2 C 0.1173(2) 0.1173(2) 0.1173(2)
C1B C 0.00000 0.1902(2) -0.0723(2)
C2B C -0.1173(2) 0.1173(2) -0.1173(2)
C1D C 0.07230 0.0000(2) 0.1902(2)
C1F C -0.07230 0.0000(2) 0.1902(2)
C2A C -0.1173(2) -0.1173(2) 0.1173(2)
C1H C 0.19020 0.0723(2) 0.0000(2)
C2WA C 0.1173(2) 0.1173(2) -0.1173(2)
C2YA C -0.1173(2) 0.1173(2) 0.1173(2)
C2XA C 0.1173(2) -0.1173(2) 0.1173(2)
C1I C -0.19020 0.0723(2) 0.0000(2)
C1A C 0.00000 -0.1902(2) 0.0723(2)
C1C C 0.00000 -0.1902(2) -0.0723(2)
C2C C 0.1173(2) -0.1173(2) -0.1173(2)
C1E C 0.07230 0.0000(2) -0.1902(2)
C1G C -0.07230 0.0000(2) -0.1902(2)
C1J C 0.19020 -0.0723(2) 0.0000(2)
C1K C -0.19020 -0.0723(2) 0.0000(2)
C2VA C -0.1173(2) -0.1173(2) -0.1173(2)
#END

data_CSD_CIF_DOPSIK01
_audit_creation_date 1998-03-04
_audit_creation_method CSD-ConQuest-V1
_database_code_CSD DOPSIK01
_database_code_depnum_ccdc_archive 'CCDC 104163; CCDC 406032'
_database_code_depnum_ccdc_fiz 'CSD 406032'
_chemical_formula_sum 'C20 H20'
_chemical_formula_moiety
;
C20 H20
;
_journal_coden_Cambridge 16
_journal_volume 53
_journal_year 1997
_journal_page_first 10029
_journal_name_full 'Tetrahedron '
loop_
_publ_author_name
"M.Bertau"
"F.Wahl"
"A.Weiler"
"K.Scheumann"
"J.Woerth"
"M.Keller"
"H.Prinzbach"
_chemical_name_systematic
;
Undecacyclo(9.9.0.0^2,9^.0^3,7^.0^4,20^.0^5,18^.0^6,16^.0^8,15^.0^10,14^.0^12,
19^.0^13,17^)icosane
;
_chemical_name_common
;
Dodecahedrane
;
_chemical_melting_point 703.15
_cell_volume   1206.045
_exptl_crystal_colour 'white'
_exptl_crystal_density_diffrn 1.43
_diffrn_ambient_temperature ?
_diffrn_special_details
;
The study was carried out at room temperature,in the range 283-303K

;
#These two values have been output from a single CSD field.
_refine_ls_R_factor_gt 0.04
_refine_ls_wR_factor_gt 0.04
_symmetry_cell_setting cubic
_symmetry_space_group_name_H-M 'F m -3'
_symmetry_Int_Tables_number 202
loop_
_symmetry_equiv_pos_site_id
_symmetry_equiv_pos_as_xyz
1 x,y,z
2 -x,-y,z
3 x,-y,-z
4 z,x,y
5 -x,y,-z
6 -z,-x,y
7 z,-x,-y
8 -z,x,-y
9 y,z,x
10 y,-z,-x
11 -y,z,-x
12 -y,-z,x
13 x,1/2+y,1/2+z
14 -x,1/2-y,1/2+z
15 x,1/2-y,1/2-z
16 z,1/2+x,1/2+y
17 -x,1/2+y,1/2-z
18 -z,1/2-x,1/2+y
19 z,1/2-x,1/2-y
20 -z,1/2+x,1/2-y
21 y,1/2+z,1/2+x
22 y,1/2-z,1/2-x
23 -y,1/2+z,1/2-x
24 -y,1/2-z,1/2+x
25 1/2+x,y,1/2+z
26 1/2-x,-y,1/2+z
27 1/2+x,-y,1/2-z
28 1/2+z,x,1/2+y
29 1/2-x,y,1/2-z
30 1/2-z,-x,1/2+y
31 1/2+z,-x,1/2-y
32 1/2-z,x,1/2-y
33 1/2+y,z,1/2+x
34 1/2+y,-z,1/2-x
35 1/2-y,z,1/2-x
36 1/2-y,-z,1/2+x
37 1/2+x,1/2+y,z
38 1/2-x,1/2-y,z
39 1/2+x,1/2-y,-z
40 1/2+z,1/2+x,y
41 1/2-x,1/2+y,-z
42 1/2-z,1/2-x,y
43 1/2+z,1/2-x,-y
44 1/2-z,1/2+x,-y
45 1/2+y,1/2+z,x
46 1/2+y,1/2-z,-x
47 1/2-y,1/2+z,-x
48 1/2-y,1/2-z,x
49 -x,-y,-z
50 x,y,-z
51 -x,y,z
52 -z,-x,-y
53 x,-y,z
54 z,x,-y
55 -z,x,y
56 z,-x,y
57 -y,-z,-x
58 -y,z,x
59 y,-z,x
60 y,z,-x
61 -x,-1/2-y,-1/2-z
62 x,-1/2+y,-1/2-z
63 -x,-1/2+y,-1/2+z
64 -z,-1/2-x,-1/2-y
65 x,-1/2-y,-1/2+z
66 z,-1/2+x,-1/2-y
67 -z,-1/2+x,-1/2+y
68 z,-1/2-x,-1/2+y
69 -y,-1/2-z,-1/2-x
70 -y,-1/2+z,-1/2+x
71 y,-1/2-z,-1/2+x
72 y,-1/2+z,-1/2-x
73 -1/2-x,-y,-1/2-z
74 -1/2+x,y,-1/2-z
75 -1/2-x,y,-1/2+z
76 -1/2-z,-x,-1/2-y
77 -1/2+x,-y,-1/2+z
78 -1/2+z,x,-1/2-y
79 -1/2-z,x,-1/2+y
80 -1/2+z,-x,-1/2+y
81 -1/2-y,-z,-1/2-x
82 -1/2-y,z,-1/2+x
83 -1/2+y,-z,-1/2+x
84 -1/2+y,z,-1/2-x
85 -1/2-x,-1/2-y,-z
86 -1/2+x,-1/2+y,-z
87 -1/2-x,-1/2+y,z
88 -1/2-z,-1/2-x,-y
89 -1/2+x,-1/2-y,z
90 -1/2+z,-1/2+x,-y
91 -1/2-z,-1/2+x,y
92 -1/2+z,-1/2-x,y
93 -1/2-y,-1/2-z,-x
94 -1/2-y,-1/2+z,x
95 -1/2+y,-1/2-z,x
96 -1/2+y,-1/2+z,-x
_cell_length_a 10.6444(4)
_cell_length_b 10.6444(4)
_cell_length_c 10.6444(4)
_cell_angle_alpha 90
_cell_angle_beta 90
_cell_angle_gamma 90
_cell_formula_units_Z 4
loop_
_atom_type_symbol
_atom_type_radius_bond
C 0.68
H 0.23
loop_
_atom_site_label
_atom_site_type_symbol
_atom_site_fract_x
_atom_site_fract_y
_atom_site_fract_z
C1 C 0.1902(2) 0.00000 0.0723(2)
C2 C 0.1171(1) 0.11710 0.11710
H1 H 0.279(2) 0.00000 0.110(2)
H2 H 0.170(1) 0.17020 0.17020
C1B C 0.1902(2) 0.00000 -0.0723(2)
C2B C 0.1171(1) -0.11710 -0.11710
C1F C 0.0723(2) -0.19020 0.0000(2)
C1E C -0.0723(2) -0.19020 0.0000(2)
C2E C -0.1171(1) -0.11710 0.11710
C1K C 0.0000(2) -0.07230 0.1902(2)
C1H C 0.0000(2) 0.07230 0.1902(2)
C2ZA C 0.1171(1) -0.11710 0.11710
H1F H 0.110(2) -0.27900 0.000(2)
H1K H 0.000(2) -0.11000 0.279(2)
H2ZA H 0.170(1) -0.17020 0.17020
C1C C 0.0723(2) 0.19020 0.0000(2)
C1G C -0.0723(2) 0.19020 0.0000(2)
C2AB C 0.1171(1) 0.11710 -0.11710
C1GB C 0.0000(2) 0.07230 -0.1902(2)
C1DB C 0.0000(2) -0.07230 -0.1902(2)
C2DB C -0.1171(1) -0.11710 -0.11710
C1VA C -0.1902(2) 0.00000 -0.0723(2)
C1XA C -0.1902(2) 0.00000 0.0723(2)
C2XA C -0.1171(1) 0.11710 0.11710
C2G C -0.1171(1) 0.11710 -0.11710
H1GB H 0.000(2) 0.11000 -0.279(2)
H1VA H -0.279(2) 0.00000 -0.110(2)
H2G H -0.1702(10) 0.17000 -0.17020
H1G H -0.110(2) 0.27900 0.000(2)
H1H H 0.000(2) 0.11000 0.279(2)
H2XA H -0.170(1) 0.17020 0.17020
H2E H -0.1702(10) -0.17000 0.17020
H1XA H -0.279(2) 0.00000 0.110(2)
H1E H -0.110(2) -0.27900 0.000(2)
H2DB H -0.1702(10) -0.17020 -0.17000
H2B H 0.170(1) -0.17020 -0.17020
H1DB H 0.000(2) -0.11000 -0.279(2)
H1B H 0.279(2) 0.00000 -0.110(2)
H2AB H 0.1702(10) 0.17000 -0.17020
H1C H 0.110(2) 0.27900 0.000(2)
#END

data_CSD_CIF_FUYZOO01
_audit_creation_date 2008-02-05
_audit_creation_method CSD-ConQuest-V1
_database_code_CSD FUYZOO01
_database_code_depnum_ccdc_archive 'CCDC 614376'
_chemical_formula_sum 'H12 B12 K2'
_chemical_formula_moiety
;
2(K1 1+),H12 B12 2-
;
_journal_coden_Cambridge 29
_journal_volume 629
_journal_year 2003
_journal_page_first 1390
_journal_name_full 'Z.Anorg.Allg.Chem. '
loop_
_publ_author_name
"I.Tiritiris"
"T.Schleid"
_chemical_name_systematic
;
dipotassium closo-dodecaborate(12)
;
_cell_volume   1200.818
_exptl_crystal_density_diffrn 1.217
_exptl_special_details
;
Isostructural with the Rb and ammonium analogues

;
_diffrn_ambient_temperature 298
#These two values have been output from a single CSD field.
_refine_ls_R_factor_gt 0.027
_refine_ls_wR_factor_gt 0.027
_symmetry_cell_setting cubic
_symmetry_space_group_name_H-M 'F m -3'
_symmetry_Int_Tables_number 202
loop_
_symmetry_equiv_pos_site_id
_symmetry_equiv_pos_as_xyz
1 x,y,z
2 -x,-y,z
3 x,-y,-z
4 z,x,y
5 -x,y,-z
6 -z,-x,y
7 z,-x,-y
8 -z,x,-y
9 y,z,x
10 y,-z,-x
11 -y,z,-x
12 -y,-z,x
13 x,1/2+y,1/2+z
14 -x,1/2-y,1/2+z
15 x,1/2-y,1/2-z
16 z,1/2+x,1/2+y
17 -x,1/2+y,1/2-z
18 -z,1/2-x,1/2+y
19 z,1/2-x,1/2-y
20 -z,1/2+x,1/2-y
21 y,1/2+z,1/2+x
22 y,1/2-z,1/2-x
23 -y,1/2+z,1/2-x
24 -y,1/2-z,1/2+x
25 1/2+x,y,1/2+z
26 1/2-x,-y,1/2+z
27 1/2+x,-y,1/2-z
28 1/2+z,x,1/2+y
29 1/2-x,y,1/2-z
30 1/2-z,-x,1/2+y
31 1/2+z,-x,1/2-y
32 1/2-z,x,1/2-y
33 1/2+y,z,1/2+x
34 1/2+y,-z,1/2-x
35 1/2-y,z,1/2-x
36 1/2-y,-z,1/2+x
37 1/2+x,1/2+y,z
38 1/2-x,1/2-y,z
39 1/2+x,1/2-y,-z
40 1/2+z,1/2+x,y
41 1/2-x,1/2+y,-z
42 1/2-z,1/2-x,y
43 1/2+z,1/2-x,-y
44 1/2-z,1/2+x,-y
45 1/2+y,1/2+z,x
46 1/2+y,1/2-z,-x
47 1/2-y,1/2+z,-x
48 1/2-y,1/2-z,x
49 -x,-y,-z
50 x,y,-z
51 -x,y,z
52 -z,-x,-y
53 x,-y,z
54 z,x,-y
55 -z,x,y
56 z,-x,y
57 -y,-z,-x
58 -y,z,x
59 y,-z,x
60 y,z,-x
61 -x,-1/2-y,-1/2-z
62 x,-1/2+y,-1/2-z
63 -x,-1/2+y,-1/2+z
64 -z,-1/2-x,-1/2-y
65 x,-1/2-y,-1/2+z
66 z,-1/2+x,-1/2-y
67 -z,-1/2+x,-1/2+y
68 z,-1/2-x,-1/2+y
69 -y,-1/2-z,-1/2-x
70 -y,-1/2+z,-1/2+x
71 y,-1/2-z,-1/2+x
72 y,-1/2+z,-1/2-x
73 -1/2-x,-y,-1/2-z
74 -1/2+x,y,-1/2-z
75 -1/2-x,y,-1/2+z
76 -1/2-z,-x,-1/2-y
77 -1/2+x,-y,-1/2+z
78 -1/2+z,x,-1/2-y
79 -1/2-z,x,-1/2+y
80 -1/2+z,-x,-1/2+y
81 -1/2-y,-z,-1/2-x
82 -1/2-y,z,-1/2+x
83 -1/2+y,-z,-1/2+x
84 -1/2+y,z,-1/2-x
85 -1/2-x,-1/2-y,-z
86 -1/2+x,-1/2+y,-z
87 -1/2-x,-1/2+y,z
88 -1/2-z,-1/2-x,-y
89 -1/2+x,-1/2-y,z
90 -1/2+z,-1/2+x,-y
91 -1/2-z,-1/2+x,y
92 -1/2+z,-1/2-x,y
93 -1/2-y,-1/2-z,-x
94 -1/2-y,-1/2+z,x
95 -1/2+y,-1/2-z,x
96 -1/2+y,-1/2+z,-x
_cell_length_a 10.6290(8)
_cell_length_b 10.6290(8)
_cell_length_c 10.6290(8)
_cell_angle_alpha 90
_cell_angle_beta 90
_cell_angle_gamma 90
_cell_formula_units_Z 4
loop_
_atom_type_symbol
_atom_type_radius_bond
H 0.23
B 0.83
K 1.33
loop_
_atom_site_label
_atom_site_type_symbol
_atom_site_fract_x
_atom_site_fract_y
_atom_site_fract_z
K1 K 0.25000 0.25000 0.25000
B1 B 0.00000 0.1356(1) 0.0833(1)
H1 H 0.00000 0.223(2) 0.135(2)
B1C B 0.08330 0.0000(1) 0.1356(1)
B1H B 0.13560 0.0833(1) 0.0000(1)
B1D B 0.00000 0.1356(1) -0.0833(1)
B1G B -0.08330 0.0000(1) -0.1356(1)
B1J B -0.13560 0.0833(1) 0.0000(1)
B1F B 0.08330 0.0000(1) -0.1356(1)
B1I B 0.13560 -0.0833(1) 0.0000(1)
B1B B 0.00000 -0.1356(1) -0.0833(1)
B1K B -0.13560 -0.0833(1) 0.0000(1)
B1A B 0.00000 -0.1356(1) 0.0833(1)
B1E B -0.08330 0.0000(1) 0.1356(1)
H1C H 0.13500 0.000(2) 0.223(2)
H1A H 0.00000 -0.223(2) 0.135(2)
H1I H 0.22300 -0.135(2) 0.000(2)
H1J H -0.22300 0.135(2) 0.000(2)
H1E H -0.13500 0.000(2) 0.223(2)
H1G H -0.13500 0.000(2) -0.223(2)
H1B H 0.00000 -0.223(2) -0.135(2)
H1K H -0.22300 -0.135(2) 0.000(2)
H1D H 0.00000 0.223(2) -0.135(2)
H1H H 0.22300 0.135(2) 0.000(2)
H1F H 0.13500 0.000(2) -0.223(2)
#END

data_CSD_CIF_GALGUV01
_audit_creation_date 2008-02-05
_audit_creation_method CSD-ConQuest-V1
_database_code_CSD GALGUV01
_database_code_depnum_ccdc_archive 'CCDC 614377'
_chemical_formula_sum 'H12 B12 Rb2'
_chemical_formula_moiety
;
2(Rb1 1+),H12 B12 2-
;
_journal_coden_Cambridge 29
_journal_volume 629
_journal_year 2003
_journal_page_first 1390
_journal_name_full 'Z.Anorg.Allg.Chem. '
loop_
_publ_author_name
"I.Tiritiris"
"T.Schleid"
_chemical_name_systematic
;
dirubidium closo-dodecaborate(12)
;
_cell_volume   1283.444
_exptl_crystal_density_diffrn 1.619
_exptl_special_details
;
Isostructural with the K and ammonium analogues

;
_diffrn_ambient_temperature 298
#These two values have been output from a single CSD field.
_refine_ls_R_factor_gt 0.019
_refine_ls_wR_factor_gt 0.019
_symmetry_cell_setting cubic
_symmetry_space_group_name_H-M 'F m -3'
_symmetry_Int_Tables_number 202
loop_
_symmetry_equiv_pos_site_id
_symmetry_equiv_pos_as_xyz
1 x,y,z
2 -x,-y,z
3 x,-y,-z
4 z,x,y
5 -x,y,-z
6 -z,-x,y
7 z,-x,-y
8 -z,x,-y
9 y,z,x
10 y,-z,-x
11 -y,z,-x
12 -y,-z,x
13 x,1/2+y,1/2+z
14 -x,1/2-y,1/2+z
15 x,1/2-y,1/2-z
16 z,1/2+x,1/2+y
17 -x,1/2+y,1/2-z
18 -z,1/2-x,1/2+y
19 z,1/2-x,1/2-y
20 -z,1/2+x,1/2-y
21 y,1/2+z,1/2+x
22 y,1/2-z,1/2-x
23 -y,1/2+z,1/2-x
24 -y,1/2-z,1/2+x
25 1/2+x,y,1/2+z
26 1/2-x,-y,1/2+z
27 1/2+x,-y,1/2-z
28 1/2+z,x,1/2+y
29 1/2-x,y,1/2-z
30 1/2-z,-x,1/2+y
31 1/2+z,-x,1/2-y
32 1/2-z,x,1/2-y
33 1/2+y,z,1/2+x
34 1/2+y,-z,1/2-x
35 1/2-y,z,1/2-x
36 1/2-y,-z,1/2+x
37 1/2+x,1/2+y,z
38 1/2-x,1/2-y,z
39 1/2+x,1/2-y,-z
40 1/2+z,1/2+x,y
41 1/2-x,1/2+y,-z
42 1/2-z,1/2-x,y
43 1/2+z,1/2-x,-y
44 1/2-z,1/2+x,-y
45 1/2+y,1/2+z,x
46 1/2+y,1/2-z,-x
47 1/2-y,1/2+z,-x
48 1/2-y,1/2-z,x
49 -x,-y,-z
50 x,y,-z
51 -x,y,z
52 -z,-x,-y
53 x,-y,z
54 z,x,-y
55 -z,x,y
56 z,-x,y
57 -y,-z,-x
58 -y,z,x
59 y,-z,x
60 y,z,-x
61 -x,-1/2-y,-1/2-z
62 x,-1/2+y,-1/2-z
63 -x,-1/2+y,-1/2+z
64 -z,-1/2-x,-1/2-y
65 x,-1/2-y,-1/2+z
66 z,-1/2+x,-1/2-y
67 -z,-1/2+x,-1/2+y
68 z,-1/2-x,-1/2+y
69 -y,-1/2-z,-1/2-x
70 -y,-1/2+z,-1/2+x
71 y,-1/2-z,-1/2+x
72 y,-1/2+z,-1/2-x
73 -1/2-x,-y,-1/2-z
74 -1/2+x,y,-1/2-z
75 -1/2-x,y,-1/2+z
76 -1/2-z,-x,-1/2-y
77 -1/2+x,-y,-1/2+z
78 -1/2+z,x,-1/2-y
79 -1/2-z,x,-1/2+y
80 -1/2+z,-x,-1/2+y
81 -1/2-y,-z,-1/2-x
82 -1/2-y,z,-1/2+x
83 -1/2+y,-z,-1/2+x
84 -1/2+y,z,-1/2-x
85 -1/2-x,-1/2-y,-z
86 -1/2+x,-1/2+y,-z
87 -1/2-x,-1/2+y,z
88 -1/2-z,-1/2-x,-y
89 -1/2+x,-1/2-y,z
90 -1/2+z,-1/2+x,-y
91 -1/2-z,-1/2+x,y
92 -1/2+z,-1/2-x,y
93 -1/2-y,-1/2-z,-x
94 -1/2-y,-1/2+z,x
95 -1/2+y,-1/2-z,x
96 -1/2+y,-1/2+z,-x
_cell_length_a 10.8674(8)
_cell_length_b 10.8674(8)
_cell_length_c 10.8674(8)
_cell_angle_alpha 90
_cell_angle_beta 90
_cell_angle_gamma 90
_cell_formula_units_Z 4
loop_
_atom_type_symbol
_atom_type_radius_bond
H 0.23
B 0.83
Rb 1.47
loop_
_atom_site_label
_atom_site_type_symbol
_atom_site_fract_x
_atom_site_fract_y
_atom_site_fract_z
Rb1 Rb 0.25000 0.25000 0.25000
B1 B 0.00000 0.13240 0.0823(2)
H1 H 0.00000 0.211(3) 0.135(3)
B1C B 0.08230 0.00000 0.1324(2)
B1H B 0.13240 0.08230 0.0000(2)
B1D B 0.00000 0.13240 -0.0823(2)
B1G B -0.08230 0.00000 -0.1324(2)
B1J B -0.13240 0.08230 0.0000(2)
B1F B 0.08230 0.00000 -0.1324(2)
B1I B 0.13240 -0.08230 0.0000(2)
B1B B 0.00000 -0.13240 -0.0823(2)
B1K B -0.13240 -0.08230 0.0000(2)
B1A B 0.00000 -0.13240 0.0823(2)
B1E B -0.08230 0.00000 0.1324(2)
H1C H 0.13500 0.000(3) 0.211(3)
H1A H 0.00000 -0.211(3) 0.135(3)
H1I H 0.21100 -0.135(3) 0.000(3)
H1J H -0.21100 0.135(3) 0.000(3)
H1E H -0.13500 0.000(3) 0.211(3)
H1G H -0.13500 0.000(3) -0.211(3)
H1B H 0.00000 -0.211(3) -0.135(3)
H1K H -0.21100 -0.135(3) 0.000(3)
H1D H 0.00000 0.211(3) -0.135(3)
H1H H 0.21100 0.135(3) 0.000(3)
H1F H 0.13500 0.000(3) -0.211(3)
#END

data_CSD_CIF_JINVAE
_audit_creation_date 2008-02-05
_audit_creation_method CSD-ConQuest-V1
_database_code_CSD JINVAE
_database_code_depnum_ccdc_archive 'CCDC 614378'
_chemical_formula_sum 'H20 B12 N2'
_chemical_formula_moiety
;
2(H4 N1 1+),H12 B12 2-
;
_journal_coden_Cambridge 29
_journal_volume 629
_journal_year 2003
_journal_page_first 1390
_journal_name_full 'Z.Anorg.Allg.Chem. '
loop_
_publ_author_name
"I.Tiritiris"
"T.Schleid"
_chemical_name_systematic
;
diammonium closo-dodecaborate(12)
;
_cell_volume   1287.239
_exptl_crystal_density_diffrn 0.918
_exptl_special_details
;
Isostructural with the Rb and K analogues

;
_diffrn_ambient_temperature 298
#These two values have been output from a single CSD field.
_refine_ls_R_factor_gt 0.033
_refine_ls_wR_factor_gt 0.033
_symmetry_cell_setting cubic
_symmetry_space_group_name_H-M 'F m -3'
_symmetry_Int_Tables_number 202
loop_
_symmetry_equiv_pos_site_id
_symmetry_equiv_pos_as_xyz
1 x,y,z
2 -x,-y,z
3 x,-y,-z
4 z,x,y
5 -x,y,-z
6 -z,-x,y
7 z,-x,-y
8 -z,x,-y
9 y,z,x
10 y,-z,-x
11 -y,z,-x
12 -y,-z,x
13 x,1/2+y,1/2+z
14 -x,1/2-y,1/2+z
15 x,1/2-y,1/2-z
16 z,1/2+x,1/2+y
17 -x,1/2+y,1/2-z
18 -z,1/2-x,1/2+y
19 z,1/2-x,1/2-y
20 -z,1/2+x,1/2-y
21 y,1/2+z,1/2+x
22 y,1/2-z,1/2-x
23 -y,1/2+z,1/2-x
24 -y,1/2-z,1/2+x
25 1/2+x,y,1/2+z
26 1/2-x,-y,1/2+z
27 1/2+x,-y,1/2-z
28 1/2+z,x,1/2+y
29 1/2-x,y,1/2-z
30 1/2-z,-x,1/2+y
31 1/2+z,-x,1/2-y
32 1/2-z,x,1/2-y
33 1/2+y,z,1/2+x
34 1/2+y,-z,1/2-x
35 1/2-y,z,1/2-x
36 1/2-y,-z,1/2+x
37 1/2+x,1/2+y,z
38 1/2-x,1/2-y,z
39 1/2+x,1/2-y,-z
40 1/2+z,1/2+x,y
41 1/2-x,1/2+y,-z
42 1/2-z,1/2-x,y
43 1/2+z,1/2-x,-y
44 1/2-z,1/2+x,-y
45 1/2+y,1/2+z,x
46 1/2+y,1/2-z,-x
47 1/2-y,1/2+z,-x
48 1/2-y,1/2-z,x
49 -x,-y,-z
50 x,y,-z
51 -x,y,z
52 -z,-x,-y
53 x,-y,z
54 z,x,-y
55 -z,x,y
56 z,-x,y
57 -y,-z,-x
58 -y,z,x
59 y,-z,x
60 y,z,-x
61 -x,-1/2-y,-1/2-z
62 x,-1/2+y,-1/2-z
63 -x,-1/2+y,-1/2+z
64 -z,-1/2-x,-1/2-y
65 x,-1/2-y,-1/2+z
66 z,-1/2+x,-1/2-y
67 -z,-1/2+x,-1/2+y
68 z,-1/2-x,-1/2+y
69 -y,-1/2-z,-1/2-x
70 -y,-1/2+z,-1/2+x
71 y,-1/2-z,-1/2+x
72 y,-1/2+z,-1/2-x
73 -1/2-x,-y,-1/2-z
74 -1/2+x,y,-1/2-z
75 -1/2-x,y,-1/2+z
76 -1/2-z,-x,-1/2-y
77 -1/2+x,-y,-1/2+z
78 -1/2+z,x,-1/2-y
79 -1/2-z,x,-1/2+y
80 -1/2+z,-x,-1/2+y
81 -1/2-y,-z,-1/2-x
82 -1/2-y,z,-1/2+x
83 -1/2+y,-z,-1/2+x
84 -1/2+y,z,-1/2-x
85 -1/2-x,-1/2-y,-z
86 -1/2+x,-1/2+y,-z
87 -1/2-x,-1/2+y,z
88 -1/2-z,-1/2-x,-y
89 -1/2+x,-1/2-y,z
90 -1/2+z,-1/2+x,-y
91 -1/2-z,-1/2+x,y
92 -1/2+z,-1/2-x,y
93 -1/2-y,-1/2-z,-x
94 -1/2-y,-1/2+z,x
95 -1/2+y,-1/2-z,x
96 -1/2+y,-1/2+z,-x
_cell_length_a 10.8781(9)
_cell_length_b 10.8781(9)
_cell_length_c 10.8781(9)
_cell_angle_alpha 90
_cell_angle_beta 90
_cell_angle_gamma 90
_cell_formula_units_Z 4
loop_
_atom_type_symbol
_atom_type_radius_bond
H 0.23
B 0.83
N 0.68
loop_
_atom_site_label
_atom_site_type_symbol
_atom_site_fract_x
_atom_site_fract_y
_atom_site_fract_z
N1 N 0.25000 0.25000 0.25000
B1 B 0.00000 0.1329(8) 0.08188(8)
H1 H 0.00000 0.2232(9) 0.1364(9)
H2? H 0.205(3) 0.25000 0.25000
B1C B 0.08188 0.0000(8) 0.13290(8)
B1H B 0.13290 0.08188(80) 0.00000(8)
B1D B 0.00000 0.1329(8) -0.08188(8)
B1G B -0.08188 0.0000(8) -0.13290(8)
B1J B -0.13290 0.08188(80) 0.00000(8)
B1F B 0.08188 0.0000(8) -0.13290(8)
B1I B 0.13290 -0.08188(80) 0.00000(8)
B1B B 0.00000 -0.1329(8) -0.08188(8)
B1K B -0.13290 -0.08188(80) 0.00000(8)
B1A B 0.00000 -0.1329(8) 0.08188(8)
B1E B -0.08188 0.0000(8) 0.13290(8)
H1C H 0.13640 0.0000(9) 0.2232(9)
H1A H 0.00000 -0.2232(9) 0.1364(9)
H1I H 0.22320 -0.1364(9) 0.0000(9)
H1J H -0.22320 0.1364(9) 0.0000(9)
H1E H -0.13640 0.0000(9) 0.2232(9)
H1G H -0.13640 0.0000(9) -0.2232(9)
H1B H 0.00000 -0.2232(9) -0.1364(9)
H1K H -0.22320 -0.1364(9) 0.0000(9)
H1D H 0.00000 0.2232(9) -0.1364(9)
H1H H 0.22320 0.1364(9) 0.0000(9)
H1F H 0.13640 0.0000(9) -0.2232(9)
#END

data_CSD_CIF_POPMIT
_audit_creation_date 2019-09-03
_audit_creation_method CSD-ConQuest-V1
_database_code_CSD POPMIT
_database_code_depnum_ccdc_archive 'CCDC 1871919'
_chemical_formula_sum 'C8 H35.34 Cu1 Mo6 N2.67 Na1.33 O29.33'
_chemical_formula_moiety
;
C8 H14 Cu1 Mo6 O24 4-,2.67(H4 N1 1+),1.33(Na1 1+),5.33(H2 O1)
;
_journal_coden_Cambridge 9
_journal_volume 58
_journal_year 2019
_journal_page_first 11988
_journal_name_full 'Inorg.Chem. '
loop_
_publ_author_name
"Min Cheng"
"Zicheng Xiao"
"Longbo Yu"
"Xinjun Lin"
"Yu Wang"
"Pingfan Wu"
_chemical_name_systematic
;
bis(\m-2-(oxidomethyl)propane-1,3-bis(olato))-hexakis(\m-oxido)-dodecakis(oxid
o)-hexa-molybdenum-copper ammonium sodium hydrate
;
_cell_volume  23734.176
_exptl_crystal_colour 'light green'
_exptl_crystal_density_diffrn 2.161
_exptl_crystal_description 'block'
_diffrn_ambient_temperature 295.1
#These two values have been output from a single CSD field.
_refine_ls_R_factor_gt 0.0279
_refine_ls_wR_factor_gt 0.0279
_symmetry_cell_setting cubic
_symmetry_space_group_name_H-M 'F m -3'
_symmetry_Int_Tables_number 202
loop_
_symmetry_equiv_pos_site_id
_symmetry_equiv_pos_as_xyz
1 x,y,z
2 -x,-y,z
3 -x,y,-z
4 x,-y,-z
5 z,x,y
6 z,-x,-y
7 -z,-x,y
8 -z,x,-y
9 y,z,x
10 -y,z,-x
11 y,-z,-x
12 -y,-z,x
13 x,1/2+y,1/2+z
14 -x,1/2-y,1/2+z
15 -x,1/2+y,1/2-z
16 x,1/2-y,1/2-z
17 z,1/2+x,1/2+y
18 z,1/2-x,1/2-y
19 -z,1/2-x,1/2+y
20 -z,1/2+x,1/2-y
21 y,1/2+z,1/2+x
22 -y,1/2+z,1/2-x
23 y,1/2-z,1/2-x
24 -y,1/2-z,1/2+x
25 1/2+x,y,1/2+z
26 1/2-x,-y,1/2+z
27 1/2-x,y,1/2-z
28 1/2+x,-y,1/2-z
29 1/2+z,x,1/2+y
30 1/2+z,-x,1/2-y
31 1/2-z,-x,1/2+y
32 1/2-z,x,1/2-y
33 1/2+y,z,1/2+x
34 1/2-y,z,1/2-x
35 1/2+y,-z,1/2-x
36 1/2-y,-z,1/2+x
37 1/2+x,1/2+y,z
38 1/2-x,1/2-y,z
39 1/2-x,1/2+y,-z
40 1/2+x,1/2-y,-z
41 1/2+z,1/2+x,y
42 1/2+z,1/2-x,-y
43 1/2-z,1/2-x,y
44 1/2-z,1/2+x,-y
45 1/2+y,1/2+z,x
46 1/2-y,1/2+z,-x
47 1/2+y,1/2-z,-x
48 1/2-y,1/2-z,x
49 -x,-y,-z
50 x,y,-z
51 x,-y,z
52 -x,y,z
53 -z,-x,-y
54 -z,x,y
55 z,x,-y
56 z,-x,y
57 -y,-z,-x
58 y,-z,x
59 -y,z,x
60 y,z,-x
61 -x,-1/2-y,-1/2-z
62 x,-1/2+y,-1/2-z
63 x,-1/2-y,-1/2+z
64 -x,-1/2+y,-1/2+z
65 -z,-1/2-x,-1/2-y
66 -z,-1/2+x,-1/2+y
67 z,-1/2+x,-1/2-y
68 z,-1/2-x,-1/2+y
69 -y,-1/2-z,-1/2-x
70 y,-1/2-z,-1/2+x
71 -y,-1/2+z,-1/2+x
72 y,-1/2+z,-1/2-x
73 -1/2-x,-y,-1/2-z
74 -1/2+x,y,-1/2-z
75 -1/2+x,-y,-1/2+z
76 -1/2-x,y,-1/2+z
77 -1/2-z,-x,-1/2-y
78 -1/2-z,x,-1/2+y
79 -1/2+z,x,-1/2-y
80 -1/2+z,-x,-1/2+y
81 -1/2-y,-z,-1/2-x
82 -1/2+y,-z,-1/2+x
83 -1/2-y,z,-1/2+x
84 -1/2+y,z,-1/2-x
85 -1/2-x,-1/2-y,-z
86 -1/2+x,-1/2+y,-z
87 -1/2+x,-1/2-y,z
88 -1/2-x,-1/2+y,z
89 -1/2-z,-1/2-x,-y
90 -1/2-z,-1/2+x,y
91 -1/2+z,-1/2+x,-y
92 -1/2+z,-1/2-x,y
93 -1/2-y,-1/2-z,-x
94 -1/2+y,-1/2-z,x
95 -1/2-y,-1/2+z,x
96 -1/2+y,-1/2+z,-x
_cell_length_a 28.7381(6)
_cell_length_b 28.7381(6)
_cell_length_c 28.7381(6)
_cell_angle_alpha 90
_cell_angle_beta 90
_cell_angle_gamma 90
_cell_formula_units_Z 24
loop_
_atom_type_symbol
_atom_type_radius_bond
C 0.68
H 0.23
Cu 1.32
Mo 1.54
N 0.68
Na 1.66
O 0.68
loop_
_atom_site_label
_atom_site_type_symbol
_atom_site_fract_x
_atom_site_fract_y
_atom_site_fract_z
Mo1 Mo 0.05740(2) 0.15026(2) 0.23569(2)
Mo2 Mo 0.11410(2) 0.25000 0.25000
Cu1 Cu 0.00000 0.25000 0.25000
O1 O 0.09667(7) 0.18952(7) 0.27380(8)
O2 O 0.00000 0.14260(11) 0.20189(12)
O3 O 0.15050(8) 0.23623(8) 0.20488(9)
O4 O 0.05134(7) 0.22603(7) 0.20924(8)
O5 O 0.00000 0.31809(11) 0.22134(11)
O6 O 0.09384(8) 0.13778(8) 0.19019(9)
O7 O 0.05898(9) 0.10186(9) 0.27004(10)
C1 C 0.04459(12) 0.23797(12) 0.16079(11)
H1 H 0.04380 0.20950 0.14260
H2 H 0.07100 0.25610 0.15030
C2 C 0.00000 0.26562(17) 0.15147(16)
H3 H 0.00000 0.27010 0.11770
C3 C 0.00000 0.31516(18) 0.17113(16)
H4 H 0.02720 0.33130 0.15950
Na1 Na 0.16563(5) 0.16563(5) 0.16563(5)
N1 N 0.25000 0.25000 0.25000
O8 O 0.15455(11) 0.15455(11) 0.34545(11)
N2 N 0.09832(17) 0.09832(17) 0.40168(17)
O9 O 0.1543(3) 0.0452(4) 0.4534(3)
N3 N 0.0899(2) 0.0899(2) 0.0899(2)
O4YA O -0.05134(7) 0.22603(7) 0.20924(8)
C1YA C -0.04459(12) 0.23797(12) 0.16079(11)
H1YA H -0.04380 0.20950 0.14260
H2YA H -0.07100 0.25610 0.15030
H4YA H -0.02720 0.33130 0.15950
Mo1O Mo 0.05740(2) 0.34974(2) 0.26431(2)
O1O O 0.09667(7) 0.31048(7) 0.22620(8)
O2O O 0.00000 0.35740(11) 0.29811(12)
O3O O 0.15050(8) 0.26377(8) 0.29512(9)
O4O O 0.05134(7) 0.27397(7) 0.29076(8)
O5O O 0.00000 0.18191(11) 0.27866(11)
O6O O 0.09384(8) 0.36222(8) 0.30981(9)
O7O O 0.05898(9) 0.39814(9) 0.22996(10)
C1O C 0.04459(12) 0.26203(12) 0.33921(11)
H1O H 0.04380 0.29050 0.35740
H2O H 0.07100 0.24390 0.34970
C2O C 0.00000 0.23438(17) 0.34853(16)
H3O H 0.00000 0.22990 0.38230
C3O C 0.00000 0.18484(18) 0.32887(16)
H4O H 0.02720 0.16870 0.34050
O4HB O -0.05134(7) 0.27397(7) 0.29076(8)
C1HB C -0.04459(12) 0.26203(12) 0.33921(11)
H1HB H -0.04380 0.29050 0.35740
H2HB H -0.07100 0.24390 0.34970
H4HB H -0.02720 0.16870 0.34050
Mo1YA Mo -0.05740(2) 0.15026(2) 0.23569(2)
Mo2YA Mo -0.11410(2) 0.25000 0.25000
O1YA O -0.09667(7) 0.18952(7) 0.27380(8)
O3YA O -0.15050(8) 0.23623(8) 0.20488(9)
O6YA O -0.09384(8) 0.13778(8) 0.19019(9)
O7YA O -0.05898(9) 0.10186(9) 0.27004(10)
Mo1HB Mo -0.05740(2) 0.34974(2) 0.26431(2)
O1HB O -0.09667(7) 0.31048(7) 0.22620(8)
O3HB O -0.15050(8) 0.26377(8) 0.29512(9)
O6HB O -0.09384(8) 0.36222(8) 0.30981(9)
O7HB O -0.05898(9) 0.39814(9) 0.22996(10)
#END

data_CSD_CIF_POPMUF
_audit_creation_date 2019-09-03
_audit_creation_method CSD-ConQuest-V1
_database_code_CSD POPMUF
_database_code_depnum_ccdc_archive 'CCDC 1869265'
_chemical_formula_sum 'C8 H35.18 Mo6 N2.67 Na1.33 Ni1 O29.25'
_chemical_formula_moiety
;
C8 H14 Mo6 Ni1 O24 4-,2.67(H4 N1 1+),1.33(Na1 1+),5.25(H2 O1)
;
_journal_coden_Cambridge 9
_journal_volume 58
_journal_year 2019
_journal_page_first 11988
_journal_name_full 'Inorg.Chem. '
loop_
_publ_author_name
"Min Cheng"
"Zicheng Xiao"
"Longbo Yu"
"Xinjun Lin"
"Yu Wang"
"Pingfan Wu"
_chemical_name_systematic
;
bis(\m-2-(oxidomethyl)propane-1,3-bis(olato))-hexakis(\m-oxido)-dodecakis(oxid
o)-hexa-molybdenum-nickel ammonium sodium hydrate
;
_cell_volume  23931.195
_exptl_crystal_colour 'green'
_exptl_crystal_density_diffrn 2.133
_exptl_crystal_description 'block'
_diffrn_ambient_temperature 296
#These two values have been output from a single CSD field.
_refine_ls_R_factor_gt 0.0325
_refine_ls_wR_factor_gt 0.0325
_symmetry_cell_setting cubic
_symmetry_space_group_name_H-M 'F m -3'
_symmetry_Int_Tables_number 202
loop_
_symmetry_equiv_pos_site_id
_symmetry_equiv_pos_as_xyz
1 x,y,z
2 -x,-y,z
3 -x,y,-z
4 x,-y,-z
5 z,x,y
6 z,-x,-y
7 -z,-x,y
8 -z,x,-y
9 y,z,x
10 -y,z,-x
11 y,-z,-x
12 -y,-z,x
13 x,1/2+y,1/2+z
14 -x,1/2-y,1/2+z
15 -x,1/2+y,1/2-z
16 x,1/2-y,1/2-z
17 z,1/2+x,1/2+y
18 z,1/2-x,1/2-y
19 -z,1/2-x,1/2+y
20 -z,1/2+x,1/2-y
21 y,1/2+z,1/2+x
22 -y,1/2+z,1/2-x
23 y,1/2-z,1/2-x
24 -y,1/2-z,1/2+x
25 1/2+x,y,1/2+z
26 1/2-x,-y,1/2+z
27 1/2-x,y,1/2-z
28 1/2+x,-y,1/2-z
29 1/2+z,x,1/2+y
30 1/2+z,-x,1/2-y
31 1/2-z,-x,1/2+y
32 1/2-z,x,1/2-y
33 1/2+y,z,1/2+x
34 1/2-y,z,1/2-x
35 1/2+y,-z,1/2-x
36 1/2-y,-z,1/2+x
37 1/2+x,1/2+y,z
38 1/2-x,1/2-y,z
39 1/2-x,1/2+y,-z
40 1/2+x,1/2-y,-z
41 1/2+z,1/2+x,y
42 1/2+z,1/2-x,-y
43 1/2-z,1/2-x,y
44 1/2-z,1/2+x,-y
45 1/2+y,1/2+z,x
46 1/2-y,1/2+z,-x
47 1/2+y,1/2-z,-x
48 1/2-y,1/2-z,x
49 -x,-y,-z
50 x,y,-z
51 x,-y,z
52 -x,y,z
53 -z,-x,-y
54 -z,x,y
55 z,x,-y
56 z,-x,y
57 -y,-z,-x
58 y,-z,x
59 -y,z,x
60 y,z,-x
61 -x,-1/2-y,-1/2-z
62 x,-1/2+y,-1/2-z
63 x,-1/2-y,-1/2+z
64 -x,-1/2+y,-1/2+z
65 -z,-1/2-x,-1/2-y
66 -z,-1/2+x,-1/2+y
67 z,-1/2+x,-1/2-y
68 z,-1/2-x,-1/2+y
69 -y,-1/2-z,-1/2-x
70 y,-1/2-z,-1/2+x
71 -y,-1/2+z,-1/2+x
72 y,-1/2+z,-1/2-x
73 -1/2-x,-y,-1/2-z
74 -1/2+x,y,-1/2-z
75 -1/2+x,-y,-1/2+z
76 -1/2-x,y,-1/2+z
77 -1/2-z,-x,-1/2-y
78 -1/2-z,x,-1/2+y
79 -1/2+z,x,-1/2-y
80 -1/2+z,-x,-1/2+y
81 -1/2-y,-z,-1/2-x
82 -1/2+y,-z,-1/2+x
83 -1/2-y,z,-1/2+x
84 -1/2+y,z,-1/2-x
85 -1/2-x,-1/2-y,-z
86 -1/2+x,-1/2+y,-z
87 -1/2+x,-1/2-y,z
88 -1/2-x,-1/2+y,z
89 -1/2-z,-1/2-x,-y
90 -1/2-z,-1/2+x,y
91 -1/2+z,-1/2+x,-y
92 -1/2+z,-1/2-x,y
93 -1/2-y,-1/2-z,-x
94 -1/2+y,-1/2-z,x
95 -1/2-y,-1/2+z,x
96 -1/2+y,-1/2+z,-x
_cell_length_a 28.8174(6)
_cell_length_b 28.8174(6)
_cell_length_c 28.8174(6)
_cell_angle_alpha 90
_cell_angle_beta 90
_cell_angle_gamma 90
_cell_formula_units_Z 24
loop_
_atom_type_symbol
_atom_type_radius_bond
C 0.68
H 0.23
Mo 1.54
N 0.68
Na 1.66
Ni 1.24
O 0.68
loop_
_atom_site_label
_atom_site_type_symbol
_atom_site_fract_x
_atom_site_fract_y
_atom_site_fract_z
Mo1 Mo 0.15140(2) 0.05714(2) 0.23466(2)
Mo2 Mo 0.25000 0.11423(2) 0.25000
Ni1 Ni 0.25000 0.00000 0.25000
O1 O 0.14427(13) 0.00000 0.20065(14)
O2 O 0.18948(9) 0.09691(9) 0.27352(10)
O3 O 0.23614(10) 0.15043(9) 0.20502(11)
O4 O 0.27393(9) 0.05181(8) 0.29099(9)
O5 O 0.18508(13) 0.00000 0.27702(13)
O6 O 0.13826(10) 0.09401(10) 0.19027(11)
O7 O 0.10338(11) 0.05698(10) 0.26946(11)
C1 C 0.2349(2) 0.00000 0.3485(2)
H1 H 0.22950 0.00000 0.38210
C2 C 0.1855(2) 0.00000 0.3270(2)
H2 H 0.16900 -0.02720 0.33800
C3 C 0.26226(15) 0.04510(15) 0.33948(14)
H3 H 0.24390 0.07130 0.35000
H4 H 0.29060 0.04450 0.35760
Na1 Na 0.16573(6) 0.16573(6) 0.16573(6)
O8 O 0.25000 0.25000 0.25000
N1 N 0.15481(15) 0.15481(15) 0.34519(15)
N2 N 0.0987(2) -0.0987(2) 0.4013(2)
O9 O 0.1551(3) -0.0471(3) 0.4520(4)
O10 O 0.4097(5) -0.0903(5) 0.5903(5)
O11 O 0.00000 0.00000 0.178(3)
O12 O 0.3989(15) -0.1184(15) 0.50000
O13 O 0.040(4) 0.00000 0.50000
O14? O 0.00000 0.018(3) 0.232(3)
O4XA O 0.27393(9) -0.05181(8) 0.29099(9)
H2XA H 0.16900 0.02720 0.33800
C3XA C 0.26226(15) -0.04510(15) 0.33948(14)
H3XA H 0.24390 -0.07130 0.35000
H4XA H 0.29060 -0.04450 0.35760
Mo1Z Mo 0.34860(2) 0.05714(2) 0.26534(2)
O1Z O 0.35573(13) 0.00000 0.29935(14)
O2Z O 0.31052(9) 0.09691(9) 0.22648(10)
O3Z O 0.26386(10) 0.15043(9) 0.29498(11)
O4Z O 0.22607(9) 0.05181(8) 0.20901(9)
O5Z O 0.31492(13) 0.00000 0.22298(13)
O6Z O 0.36174(10) 0.09401(10) 0.30973(11)
O7Z O 0.39662(11) 0.05698(10) 0.23054(11)
C1Z C 0.2651(2) 0.00000 0.1515(2)
H1Z H 0.27050 0.00000 0.11790
C2Z C 0.3145(2) 0.00000 0.1730(2)
H2Z H 0.33100 -0.02720 0.16200
C3Z C 0.23774(15) 0.04510(15) 0.16052(14)
H3Z H 0.25610 0.07130 0.15000
H4Z H 0.20940 0.04450 0.14240
O4TB O 0.22607(9) -0.05181(8) 0.20901(9)
H2TB H 0.33100 0.02720 0.16200
C3TB C 0.23774(15) -0.04510(15) 0.16052(14)
H3TB H 0.25610 -0.07130 0.15000
H4TB H 0.20940 -0.04450 0.14240
Mo1XA Mo 0.15140(2) -0.05714(2) 0.23466(2)
Mo2XA Mo 0.25000 -0.11423(2) 0.25000
O2XA O 0.18948(9) -0.09691(9) 0.27352(10)
O3XA O 0.23614(10) -0.15043(9) 0.20502(11)
O6XA O 0.13826(10) -0.09401(10) 0.19027(11)
O7XA O 0.10338(11) -0.05698(10) 0.26946(11)
Mo1TB Mo 0.34860(2) -0.05714(2) 0.26534(2)
O2TB O 0.31052(9) -0.09691(9) 0.22648(10)
O3TB O 0.26386(10) -0.15043(9) 0.29498(11)
O6TB O 0.36174(10) -0.09401(10) 0.30973(11)
O7TB O 0.39662(11) -0.05698(10) 0.23054(11)
#END
