
#######################################################################
#
#                 Cambridge Crystallographic Data Centre
#                                CCDC
#
#######################################################################
#
# If this CIF has been generated from an entry in the Cambridge
# Structural Database, then it will include bibliographic, chemical,
# crystal, experimental, refinement or atomic coordinate data resulting
# from the CCDC's data processing and validation procedures.
#
#######################################################################

data_CSD_CIF_CIYJUQ
_audit_creation_date 2008-08-28
_audit_creation_method CSD-ConQuest-V1
_database_code_CSD CIYJUQ
_database_code_depnum_ccdc_archive 'CCDC 650988'
_chemical_formula_sum 'C36 H72 Cl2 Fe7 N6 O26'
_chemical_formula_moiety
;
C36 H72 Fe7 N6 O18 2+,2(Cl1 O4 1-)
;
_journal_coden_Cambridge 29
_journal_volume 634
_journal_year 2008
_journal_page_first 778
_journal_name_full 'Z.Anorg.Allg.Chem. '
loop_
_publ_author_name
"Tao Liu"
"Bing-Wu Wang"
"Yi-Hong Chen"
"Zhe-Ming Wang"
"Song Gao"
_chemical_name_systematic
;
hexakis(\m~4~-tris(2-Oxyethyl)amine)-iron(ii)-hexa-iron(iii) diperchlorate
;
_cell_volume  10849.930
_exptl_crystal_colour 'brown'
_exptl_crystal_density_diffrn 1.796
_exptl_special_details
;
antiferromagnetic

;
_exptl_crystal_description 'block'
_diffrn_ambient_temperature 293
#These two values have been output from a single CSD field.
_refine_ls_R_factor_gt 0.028
_refine_ls_wR_factor_gt 0.028
loop_
_citation_database_id_CSD
_citation_special_details
CIYJUQ01 "is a reinterpretation of this cif"
_symmetry_cell_setting cubic
_symmetry_space_group_name_H-M 'I 21 3'
_symmetry_Int_Tables_number 199
loop_
_symmetry_equiv_pos_site_id
_symmetry_equiv_pos_as_xyz
1 x,y,z
2 1/2-x,-y,1/2+z
3 -x,1/2+y,1/2-z
4 1/2+x,1/2-y,-z
5 z,x,y
6 1/2+z,1/2-x,-y
7 1/2-z,-x,1/2+y
8 -z,1/2+x,1/2-y
9 y,z,x
10 -y,1/2+z,1/2-x
11 1/2+y,1/2-z,-x
12 1/2-y,-z,1/2+x
13 1/2+x,1/2+y,1/2+z
14 -x,1/2-y,z
15 1/2-x,y,-z
16 x,-y,1/2-z
17 1/2+z,1/2+x,1/2+y
18 z,-x,1/2-y
19 -z,1/2-x,y
20 1/2-z,x,-y
21 1/2+y,1/2+z,1/2+x
22 1/2-y,z,-x
23 y,-z,1/2-x
24 -y,1/2-z,x
_cell_length_a 22.1382(3)
_cell_length_b 22.1382(3)
_cell_length_c 22.1382(3)
_cell_angle_alpha 90
_cell_angle_beta 90
_cell_angle_gamma 90
_cell_formula_units_Z 8
loop_
_atom_type_symbol
_atom_type_radius_bond
C 0.68
H 0.23
Cl 0.99
Fe 1.34
N 0.68
O 0.68
loop_
_atom_site_label
_atom_site_type_symbol
_atom_site_fract_x
_atom_site_fract_y
_atom_site_fract_z
Fe1 Fe 0.25010(9) 0.24990(9) 0.75010(9)
Fe2 Fe 0.13550(6) 0.21837(5) 0.83514(6)
Fe3 Fe 0.16481(5) 0.13529(6) 0.71858(6)
C1 C 0.1870(4) 0.0988(4) 0.8717(4)
H1 H 0.16250 0.07440 0.84470
H2 H 0.20500 0.07230 0.90160
C2 C 0.2377(3) 0.1316(3) 0.8351(4)
H3 H 0.26360 0.15380 0.86250
H4 H 0.26220 0.10190 0.81410
C3 C 0.0865(3) 0.1232(3) 0.9121(4)
H5 H 0.08550 0.09700 0.94720
H6 H 0.07310 0.10000 0.87740
C4 C 0.0453(4) 0.1756(4) 0.9217(4)
H7 H 0.00400 0.16110 0.92220
H8 H 0.05380 0.19310 0.96100
C5 C 0.1772(3) 0.1707(4) 0.9538(3)
H9 H 0.21990 0.16070 0.95310
H10 H 0.15990 0.15280 0.98980
C6 C 0.1703(4) 0.2407(4) 0.9577(3)
H11 H 0.13040 0.25110 0.97240
H12 H 0.20000 0.25720 0.98540
C7 C 0.1290(4) 0.1870(4) 0.6017(4)
H13 H 0.09770 0.20480 0.57660
H14 H 0.15510 0.16320 0.57580
C8 C 0.1647(4) 0.2357(4) 0.6303(4)
H15 H 0.18680 0.25790 0.59970
H16 H 0.13800 0.26360 0.65100
C9 C 0.0884(3) 0.0851(4) 0.6237(4)
H17 H 0.12290 0.07060 0.60100
H18 H 0.05380 0.08600 0.59680
C10 C 0.0756(3) 0.0420(3) 0.6761(3)
H19 H 0.03610 0.05010 0.69320
H20 H 0.07660 0.00040 0.66220
C11 C 0.0441(4) 0.1785(3) 0.6718(4)
H21 H 0.04500 0.22110 0.66180
H22 H 0.00840 0.16090 0.65350
C12 C 0.0416(4) 0.1709(3) 0.7383(4)
H23 H 0.01320 0.19950 0.75550
H24 H 0.02810 0.13040 0.74820
N1 N 0.1488(3) 0.1449(3) 0.9019(3)
N2 N 0.1009(3) 0.1474(3) 0.6468(3)
O1 O 0.2114(2) 0.1727(3) 0.7917(3)
O2 O 0.0505(3) 0.2212(3) 0.8774(2)
O3 O 0.1790(3) 0.2645(3) 0.8997(2)
O4 O 0.1718(3) 0.2947(3) 0.7898(2)
O5 O 0.1220(2) 0.0521(3) 0.7206(3)
O6 O 0.0997(3) 0.1809(3) 0.7624(3)
Cl1 Cl 0.09232(13) 0.09232(13) 1.09232(13)
O7 O 0.0572(3) 0.0572(3) 1.0572(3)
O8 O 0.1561(3) 0.0809(3) 1.0826(3)
Cl2 Cl 0.09300(12) 0.40700(12) 0.59300(12)
O9 O 0.0778(3) 0.4209(3) 0.6538(3)
O10 O 0.0544(3) 0.4456(3) 0.5544(3)
Fe2E Fe 0.33514(6) 0.36450(5) 0.78163(6)
Fe2K Fe 0.28163(6) 0.16486(5) 0.63550(6)
Fe3E Fe 0.21858(5) 0.33519(6) 0.86471(6)
Fe3K Fe 0.36471(5) 0.28142(6) 0.66481(6)
C1E C 0.3717(4) 0.3130(4) 0.9012(4)
C1K C 0.4012(4) 0.1283(4) 0.6870(4)
H1E H 0.34470 0.33750 0.92560
H1K H 0.42560 0.15530 0.66250
H2E H 0.40160 0.29500 0.92770
H2K H 0.42770 0.09840 0.70500
C2E C 0.3351(3) 0.2623(3) 0.8684(4)
C2K C 0.3684(3) 0.1649(3) 0.7377(4)
H3E H 0.36250 0.23640 0.84620
H3K H 0.34620 0.13750 0.76360
H4E H 0.31410 0.23780 0.89810
H4K H 0.39810 0.18590 0.76220
C3E C 0.4121(3) 0.4135(3) 0.8768(4)
C3K C 0.3768(3) 0.0879(3) 0.5865(4)
H5E H 0.44720 0.41450 0.90300
H5K H 0.40300 0.05280 0.58550
H6E H 0.37740 0.42690 0.90000
H6K H 0.40000 0.12260 0.57310
C4E C 0.4217(4) 0.4547(4) 0.8244(4)
C4K C 0.3244(4) 0.0783(4) 0.5453(4)
H7K H 0.33890 0.07780 0.50400
H7E H 0.42220 0.49600 0.83890
H8K H 0.30690 0.03900 0.55380
H8E H 0.46100 0.44620 0.80690
C5E C 0.4538(3) 0.3228(4) 0.8293(3)
C5K C 0.3293(3) 0.0462(4) 0.6772(3)
H9E H 0.45310 0.28010 0.83930
H9K H 0.33930 0.04690 0.71990
H10E H 0.48980 0.34010 0.84720
H10K H 0.34720 0.01020 0.65990
C6E C 0.4577(4) 0.3297(4) 0.7593(3)
C6K C 0.2593(4) 0.0423(4) 0.6703(3)
H11E H 0.47240 0.36960 0.74890
H11K H 0.24890 0.02760 0.63040
H12E H 0.48540 0.30000 0.74280
H12K H 0.24280 0.01460 0.70000
C7E C 0.1017(4) 0.3710(4) 0.8130(4)
C7K C 0.3130(4) 0.3983(4) 0.6290(4)
H13E H 0.07660 0.40230 0.79520
H13K H 0.29520 0.42340 0.59770
H14E H 0.07580 0.34490 0.83680
H14K H 0.33680 0.42420 0.65510
C8E C 0.1303(4) 0.3353(4) 0.7643(4)
C8K C 0.2643(4) 0.3697(4) 0.6647(4)
H15E H 0.09970 0.31320 0.74210
H15K H 0.24210 0.40030 0.68680
H16E H 0.15100 0.36200 0.73640
H16K H 0.23640 0.34900 0.63800
C9E C 0.1237(3) 0.4116(4) 0.9149(4)
C9K C 0.4149(3) 0.3763(4) 0.5884(4)
H17E H 0.10100 0.37710 0.92940
H17K H 0.42940 0.39900 0.62290
H18E H 0.09680 0.44620 0.91400
H18K H 0.41400 0.40320 0.55380
C10E C 0.1761(3) 0.4244(3) 0.9580(3)
C10K C 0.4580(3) 0.3239(3) 0.5756(3)
H19E H 0.19320 0.46390 0.94990
H19K H 0.44990 0.30680 0.53610
H20E H 0.16220 0.42340 0.99960
H20K H 0.49960 0.33780 0.57660
C11E C 0.1718(4) 0.4559(3) 0.8215(4)
C11K C 0.3215(4) 0.3282(3) 0.5441(4)
H21E H 0.16180 0.45500 0.77890
H21K H 0.27890 0.33820 0.54500
H22E H 0.15350 0.49160 0.83910
H22K H 0.33910 0.34650 0.50840
C12E C 0.2383(4) 0.4584(3) 0.8291(4)
C12K C 0.3291(4) 0.2617(3) 0.5416(4)
H23E H 0.25550 0.48680 0.80050
H23K H 0.30050 0.24450 0.51320
H24E H 0.24820 0.47190 0.86960
H24K H 0.36960 0.25180 0.52810
N1E N 0.4019(3) 0.3512(3) 0.8551(3)
N1K N 0.3551(3) 0.0981(3) 0.6488(3)
N2E N 0.1468(3) 0.3991(3) 0.8526(3)
N2K N 0.3526(3) 0.3532(3) 0.6009(3)
O1E O 0.2917(2) 0.2886(3) 0.8273(3)
O1K O 0.3273(2) 0.2083(3) 0.7114(3)
O2E O 0.3774(3) 0.4495(3) 0.7788(2)
O2K O 0.2788(3) 0.1226(3) 0.5505(2)
O3E O 0.3997(3) 0.3210(3) 0.7355(2)
O3K O 0.2355(3) 0.1003(3) 0.6790(2)
O4K O 0.2053(3) 0.2102(3) 0.6718(2)
O4E O 0.2898(3) 0.3282(3) 0.7053(2)
O5E O 0.2206(2) 0.3780(3) 0.9479(3)
O5K O 0.4479(2) 0.2794(3) 0.6220(3)
O6E O 0.2624(3) 0.4003(3) 0.8191(3)
O6K O 0.3191(3) 0.2376(3) 0.5997(3)
O8D O 0.0826(3) 0.1561(3) 1.0809(3)
O8H O 0.0809(3) 0.0826(3) 1.1561(3)
O9E O 0.1538(3) 0.4222(3) 0.5791(3)
O9K O 0.0791(3) 0.3462(3) 0.5778(3)
#END

data_CSD_CIF_ESOTAI
_audit_creation_date 2011-09-07
_audit_creation_method CSD-ConQuest-V1
_database_code_CSD ESOTAI
_database_code_depnum_ccdc_archive 'CCDC 813000'
_chemical_formula_sum 'C2 Au1 F3 O1'
_chemical_formula_moiety
;
C2 Au1 F3 O1
;
_journal_coden_Cambridge 179
_journal_volume 50
_journal_year 2011
_journal_page_first 6571
_journal_name_full 'Angew.Chem.,Int.Ed. '
loop_
_publ_author_name
"S.Martinez-Salvador"
"J.Fornies"
"A.Martin"
"B.Menjon"
_chemical_name_systematic
;
Carbonyl-trifluoromethyl-gold(i)
;
_chemical_name_common
;
Teaching Subset: Fundamental Chemistry, Symmetry
;
_cell_volume    907.517
_exptl_crystal_colour 'colorless'
_exptl_crystal_density_diffrn 4.303
_exptl_special_details
;
extremely moisture-sensitive

;
_exptl_crystal_description 'block'
_diffrn_ambient_temperature 100
#These two values have been output from a single CSD field.
_refine_ls_R_factor_gt 0.0252
_refine_ls_wR_factor_gt 0.0252
_symmetry_cell_setting cubic
_symmetry_space_group_name_H-M 'I 21 3'
_symmetry_Int_Tables_number 199
loop_
_symmetry_equiv_pos_site_id
_symmetry_equiv_pos_as_xyz
1 x,y,z
2 1/2-x,-y,1/2+z
3 -x,1/2+y,1/2-z
4 1/2+x,1/2-y,-z
5 z,x,y
6 1/2+z,1/2-x,-y
7 1/2-z,-x,1/2+y
8 -z,1/2+x,1/2-y
9 y,z,x
10 -y,1/2+z,1/2-x
11 1/2+y,1/2-z,-x
12 1/2-y,-z,1/2+x
13 1/2+x,1/2+y,1/2+z
14 -x,1/2-y,z
15 1/2-x,y,-z
16 x,-y,1/2-z
17 1/2+z,1/2+x,1/2+y
18 z,-x,1/2-y
19 -z,1/2-x,y
20 1/2-z,x,-y
21 1/2+y,1/2+z,1/2+x
22 1/2-y,z,-x
23 y,-z,1/2-x
24 -y,1/2-z,x
_cell_length_a 9.6817(1)
_cell_length_b 9.6817(1)
_cell_length_c 9.6817(1)
_cell_angle_alpha 90
_cell_angle_beta 90
_cell_angle_gamma 90
_cell_formula_units_Z 8
loop_
_atom_type_symbol
_atom_type_radius_bond
C 0.68
Au 1.36
F 0.64
O 0.68
loop_
_atom_site_label
_atom_site_type_symbol
_atom_site_fract_x
_atom_site_fract_y
_atom_site_fract_z
Au1 Au 0.89308(3) 0.39308(3) 0.10692(3)
F1 F 0.7418(13) 0.1486(8) 0.1750(11)
O1 O 1.0755(8) 0.5755(8) -0.0755(8)
C1 C 0.7710(9) 0.2710(9) 0.2290(9)
C2 C 1.0110(9) 0.5110(9) -0.0110(9)
F1G F 0.8250(13) 0.2418(8) 0.3514(11)
F1J F 0.6486(13) 0.3250(8) 0.2582(11)
#END

data_CSD_CIF_HEDGAY
_audit_creation_date 1994-10-12
_audit_creation_method CSD-ConQuest-V1
_database_code_CSD HEDGAY
_chemical_formula_sum 'C4 H9 I4 P1'
_chemical_formula_moiety
;
C4 H9 I3 P1 1+,I1 1-
;
_journal_coden_Cambridge 9
_journal_volume 33
_journal_year 1994
_journal_page_first 1502
_journal_name_full 'Inorg.Chem. '
loop_
_publ_author_name
"W.-W.du Mont"
"V.Stenzel"
"J.Jeske"
"P.G.Jones"
"A.Sebald"
"S.Pohl"
"W.Saak"
"M.Batcher"
_chemical_name_systematic
;
t-Butyltri-iodophosphonium iodide
;
_chemical_melting_point 385.15
_cell_volume   2522.676
_exptl_crystal_colour 'red'
_exptl_crystal_density_diffrn 3.137
_diffrn_ambient_temperature 173.15
#These two values have been output from a single CSD field.
_refine_ls_R_factor_gt 0.0235
_refine_ls_wR_factor_gt 0.0235
_symmetry_cell_setting cubic
_symmetry_space_group_name_H-M 'I 21 3'
_symmetry_Int_Tables_number 199
loop_
_symmetry_equiv_pos_site_id
_symmetry_equiv_pos_as_xyz
1 x,y,z
2 1/2+x,1/2+y,1/2+z
3 z,x,y
4 y,z,x
5 1/2+z,1/2+x,1/2+y
6 1/2+y,1/2+z,1/2+x
7 1/2+x,1/2-y,-z
8 x,-y,1/2-z
9 1/2+z,1/2-x,-y
10 1/2+y,1/2-z,-x
11 z,-x,1/2-y
12 y,-z,1/2-x
13 -x,1/2+y,1/2-z
14 1/2-x,y,-z
15 -z,1/2+x,1/2-y
16 -y,1/2+z,1/2-x
17 1/2-z,x,-y
18 1/2-y,z,-x
19 1/2-x,-y,1/2+z
20 -x,1/2-y,z
21 1/2-z,-x,1/2+y
22 1/2-y,-z,1/2+x
23 -z,1/2-x,y
24 -y,1/2-z,x
_cell_length_a 13.613(2)
_cell_length_b 13.613(2)
_cell_length_c 13.613(2)
_cell_angle_alpha 90
_cell_angle_beta 90
_cell_angle_gamma 90
_cell_formula_units_Z 8
loop_
_atom_type_symbol
_atom_type_radius_bond
C 0.68
H 0.23
I 1.40
P 1.05
loop_
_atom_site_label
_atom_site_type_symbol
_atom_site_fract_x
_atom_site_fract_y
_atom_site_fract_z
I1 I 0.38074(4) 0.13102(4) 0.66648(4)
I2 I 0.50389(4) 0.00389(4) 0.49611(4)
P1 P 0.27342(14) 0.22658(14) 0.77342(14)
C1 C 0.1921(6) 0.3079(6) 0.6921(6)
C2 C 0.1377(6) 0.2396(6) 0.6215(5)
H1 H 0.1853(6) 0.2054(28) 0.5797(26)
H2 H 0.0930(28) 0.2783(7) 0.5803(26)
H3 H 0.0998(30) 0.1914(24) 0.6592(5)
I1H I 0.16648(4) 0.11926(4) 0.86898(4)
I1U I 0.36898(4) 0.33352(4) 0.88074(4)
C2H C 0.1215(6) 0.3623(6) 0.7604(5)
C2U C 0.2604(6) 0.3785(6) 0.6377(5)
H1H H 0.0797(6) 0.3147(28) 0.7946(26)
H2H H 0.0803(28) 0.4070(7) 0.7217(26)
H3H H 0.1592(30) 0.4002(24) 0.8086(5)
H1U H 0.2946(6) 0.4203(28) 0.6853(26)
H2U H 0.2217(28) 0.4197(7) 0.5930(26)
H3U H 0.3086(30) 0.3408(24) 0.5998(5)
#END

data_CSD_CIF_POPPOA
_audit_creation_date 2009-09-08
_audit_creation_method CSD-ConQuest-V1
_database_code_CSD POPPOA
_database_code_depnum_ccdc_archive 'CCDC 694146'
_chemical_formula_sum 'C14 H34 Cl2 N2 O2'
_chemical_formula_moiety
;
C14 H30 N2 2+,2(Cl1 1-),2(H2 O1)
;
_journal_coden_Cambridge 1336
_journal_volume 11
_journal_year 2009
_journal_page_first 157
_journal_name_full 'Org.Lett. '
loop_
_publ_author_name
"Hyunwoo Kim"
"M.Staikova"
"A.J.Lough"
"Jik Chin"
_chemical_name_systematic
;
(R,R)-1,2-Dicyclohexyl-1,2-ethanediaminium dichloride dihydrate
;
_cell_volume   5746.593
_exptl_crystal_colour 'colorless'
_exptl_crystal_density_diffrn 1.154
_exptl_special_details
;
Absolute configuration

;
_exptl_crystal_description 'block'
_diffrn_ambient_temperature 150
#These two values have been output from a single CSD field.
_refine_ls_R_factor_gt 0.0468
_refine_ls_wR_factor_gt 0.0468
_symmetry_cell_setting cubic
_symmetry_space_group_name_H-M 'I 21 3'
_symmetry_Int_Tables_number 199
loop_
_symmetry_equiv_pos_site_id
_symmetry_equiv_pos_as_xyz
1 x,y,z
2 -x,1/2-y,z
3 x,-y,1/2-z
4 1/2-x,y,-z
5 z,x,y
6 y,z,x
7 -z,1/2-x,y
8 1/2-y,z,-x
9 z,-x,1/2-y
10 -y,1/2-z,x
11 1/2-z,x,-y
12 y,-z,1/2-x
13 1/2+x,1/2+y,1/2+z
14 1/2-x,-y,1/2+z
15 1/2+x,1/2-y,-z
16 -x,1/2+y,1/2-z
17 1/2+z,1/2+x,1/2+y
18 1/2+y,1/2+z,1/2+x
19 1/2-z,-x,1/2+y
20 -y,1/2+z,1/2-x
21 1/2+z,1/2-x,-y
22 1/2-y,-z,1/2+x
23 -z,1/2+x,1/2-y
24 1/2+y,1/2-z,-x
_cell_length_a 17.9117(6)
_cell_length_b 17.9117(6)
_cell_length_c 17.9117(6)
_cell_angle_alpha 90
_cell_angle_beta 90
_cell_angle_gamma 90
_cell_formula_units_Z 12
loop_
_atom_type_symbol
_atom_type_radius_bond
C 0.68
H 0.23
Cl 0.99
N 0.68
O 0.68
loop_
_atom_site_label
_atom_site_type_symbol
_atom_site_fract_x
_atom_site_fract_y
_atom_site_fract_z
N1 N 0.29430(13) 0.48487(12) 0.07550(12)
H1 H 0.26710 0.52770 0.07570
H2 H 0.33600 0.49140 0.04730
H3 H 0.30770 0.47310 0.12310
C1 C 0.24798(15) 0.42223(15) 0.04305(15)
H4 H 0.27190 0.37470 0.05990
C2 C 0.16952(16) 0.42289(15) 0.07646(15)
H5 H 0.14590 0.47220 0.06510
C3 C 0.17279(16) 0.41341(18) 0.16195(15)
H6 H 0.19960 0.36670 0.17410
H7 H 0.20110 0.45550 0.18390
C4 C 0.09496(18) 0.4109(2) 0.19646(18)
H8 H 0.09930 0.40270 0.25100
H9 H 0.06970 0.45940 0.18840
C5 C 0.0481(2) 0.3483(2) 0.16200(19)
H10 H 0.07090 0.29940 0.17400
H11 H -0.00280 0.34930 0.18340
C6 C 0.04390(18) 0.35787(19) 0.07835(17)
H12 H 0.01660 0.40450 0.06680
H13 H 0.01550 0.31570 0.05670
C7 C 0.12061(15) 0.36098(16) 0.04247(17)
H14 H 0.11500 0.37000 -0.01180
H15 H 0.14580 0.31220 0.04910
Cl1 Cl 0.45703(4) 0.54297(4) 0.04297(4)
Cl2 Cl 0.19722(5) 0.62576(5) 0.11018(5)
O1 O 0.28897(13) 0.71103(13) 0.21103(13)
H16? H 0.318(3) 0.746(3) 0.186(3)
N1C N 0.20570(13) 0.48487(12) -0.07550(12)
H1C H 0.23290 0.52770 -0.07570
H2C H 0.16400 0.49140 -0.04730
H3C H 0.19230 0.47310 -0.12310
C1C C 0.25202(15) 0.42223(15) -0.04305(15)
H4C H 0.22810 0.37470 -0.05990
C2C C 0.33048(16) 0.42289(15) -0.07646(15)
H5C H 0.35410 0.47220 -0.06510
C3C C 0.32721(16) 0.41341(18) -0.16195(15)
H6C H 0.30040 0.36670 -0.17410
H7C H 0.29890 0.45550 -0.18390
C4C C 0.40504(18) 0.4109(2) -0.19646(18)
H8C H 0.40070 0.40270 -0.25100
H9C H 0.43030 0.45940 -0.18840
C5C C 0.4519(2) 0.3483(2) -0.16200(19)
H10C H 0.42910 0.29940 -0.17400
H11C H 0.50280 0.34930 -0.18340
C6C C 0.45610(18) 0.35787(19) -0.07835(17)
H12C H 0.48340 0.40450 -0.06680
H13C H 0.48450 0.31570 -0.05670
C7C C 0.37939(15) 0.36098(16) -0.04247(17)
H14C H 0.38500 0.37000 0.01180
H15C H 0.35420 0.31220 -0.04910
#END

data_CSD_CIF_YOBDIF
_audit_creation_date 2019-03-19
_audit_creation_method CSD-ConQuest-V1
_database_code_CSD YOBDIF
_database_code_depnum_ccdc_archive 'CCDC 1864532'
_chemical_formula_sum 'C25 H39 Cl1 F3 N6 Ni1 O3 P1 S1'
_chemical_formula_moiety
;
C24 H39 Cl1 N6 Ni1 P1 1+,C1 F3 O3 S1 1-
;
_journal_coden_Cambridge 155
_journal_volume 489
_journal_year 2019
_journal_page_first 170
_journal_name_full 'Inorg.Chim.Acta '
loop_
_publ_author_name
"A.Banerjee"
"Jia Li"
"C.R.Easley"
"W.W.Brennessel"
"R.Loloee"
"F.A.Chavez"
_chemical_name_systematic
;
chloro-(2,2',2''-phosphanetriyltris[1-ethyl-4-(propan-2-yl)-1H-imidazole])-nic
kel trifluoromethanesulfonate
;
_cell_volume   6451.268
_exptl_crystal_colour 'red orange'
_exptl_crystal_density_diffrn 1.412
_exptl_special_details
;
Absolute configuration
Magnetic properties
Moisture-sensitive

;
_exptl_crystal_description 'block'
_diffrn_ambient_temperature 100
#These two values have been output from a single CSD field.
_refine_ls_R_factor_gt 0.0428
_refine_ls_wR_factor_gt 0.0428
_symmetry_cell_setting cubic
_symmetry_space_group_name_H-M 'I 21 3'
_symmetry_Int_Tables_number 199
loop_
_symmetry_equiv_pos_site_id
_symmetry_equiv_pos_as_xyz
1 x,y,z
2 1/2-x,-y,1/2+z
3 -x,1/2+y,1/2-z
4 1/2+x,1/2-y,-z
5 z,x,y
6 1/2+z,1/2-x,-y
7 1/2-z,-x,1/2+y
8 -z,1/2+x,1/2-y
9 y,z,x
10 -y,1/2+z,1/2-x
11 1/2+y,1/2-z,-x
12 1/2-y,-z,1/2+x
13 1/2+x,1/2+y,1/2+z
14 -x,1/2-y,z
15 1/2-x,y,-z
16 x,-y,1/2-z
17 1/2+z,1/2+x,1/2+y
18 z,-x,1/2-y
19 -z,1/2-x,y
20 1/2-z,x,-y
21 1/2+y,1/2+z,1/2+x
22 1/2-y,z,-x
23 y,-z,1/2-x
24 -y,1/2-z,x
_cell_length_a 18.6158(17)
_cell_length_b 18.6158(17)
_cell_length_c 18.6158(17)
_cell_angle_alpha 90
_cell_angle_beta 90
_cell_angle_gamma 90
_cell_formula_units_Z 8
loop_
_atom_type_symbol
_atom_type_radius_bond
C 0.68
H 0.23
Cl 0.99
F 0.64
N 0.68
Ni 1.24
O 0.68
P 1.05
S 1.02
loop_
_atom_site_label
_atom_site_type_symbol
_atom_site_fract_x
_atom_site_fract_y
_atom_site_fract_z
Ni1 Ni 0.76174(2) 0.76174(2) 0.76174(2)
Cl1 Cl 0.82914(3) 0.82914(3) 0.82914(3)
P1 P 0.65733(3) 0.65733(3) 0.65733(3)
N1 N 0.67138(10) 0.71523(10) 0.79652(9)
N2 N 0.57613(10) 0.64573(10) 0.78466(10)
C1 C 0.6337(1) 0.67401(11) 0.75088(11)
C2 C 0.66288(13) 0.75251(13) 0.92673(11)
H1 H 0.71596 0.74500 0.93009
C3 C 0.6287(2) 0.72245(19) 0.99532(15)
H2 H 0.63763 0.67064 0.99810
H3 H 0.57685 0.73133 0.99443
H4 H 0.64988 0.74616 1.03729
C4 C 0.64929(16) 0.83295(15) 0.91905(17)
H5 H 0.67163 0.85036 0.87468
H6 H 0.67007 0.85827 0.96027
H7 H 0.59744 0.84190 0.91728
C5 C 0.63635(11) 0.71270(12) 0.86197(11)
C6 C 0.57708(11) 0.66944(12) 0.85454(11)
H8 H 0.54312 0.65803 0.89089
C7 C 0.51933(11) 0.60090(12) 0.75279(12)
H9 H 0.49968 0.56824 0.78988
H10 H 0.54005 0.57109 0.71393
C8 C 0.45914(15) 0.64694(17) 0.72252(17)
H11 H 0.42062 0.61587 0.70456
H12 H 0.47773 0.67642 0.68307
H13 H 0.44022 0.67822 0.76040
S1 S 0.53369(3) 0.46631(3) 0.96631(3)
F1 F 0.40775(9) 0.51747(9) 1.00502(10)
O1 O 0.52578(13) 0.49800(12) 0.89620(11)
C9 C 0.47694(15) 0.52306(15) 1.02306(15)
N1D N 0.79652(10) 0.67138(10) 0.71523(9)
N2D N 0.78466(10) 0.57613(10) 0.64573(10)
C1D C 0.75088(10) 0.63370(11) 0.67401(11)
C2D C 0.92673(13) 0.66288(13) 0.75251(11)
H1D H 0.93009 0.71596 0.74500
C3D C 0.99532(20) 0.62870(19) 0.72245(15)
H2D H 0.99810 0.63763 0.67064
H3D H 0.99443 0.57685 0.73133
H4D H 1.03729 0.64988 0.74616
C4D C 0.91905(16) 0.64929(15) 0.83295(17)
H5D H 0.87468 0.67163 0.85036
H6D H 0.96027 0.67007 0.85827
H7D H 0.91728 0.59744 0.84190
C5D C 0.86197(11) 0.63635(12) 0.71270(11)
C6D C 0.85454(11) 0.57708(12) 0.66944(11)
H8D H 0.89089 0.54312 0.65803
C7D C 0.75279(11) 0.51933(12) 0.60090(12)
H9D H 0.78988 0.49968 0.56824
H10D H 0.71393 0.54005 0.57109
C8D C 0.72252(15) 0.45914(17) 0.64694(17)
H11D H 0.70456 0.42062 0.61587
H12D H 0.68307 0.47773 0.67642
H13D H 0.76040 0.44022 0.67822
N1H N 0.71523(10) 0.79652(10) 0.67138(9)
N2H N 0.64573(10) 0.78466(10) 0.57613(10)
C1H C 0.67401(10) 0.75088(11) 0.63370(11)
C2H C 0.75251(13) 0.92673(13) 0.66288(11)
H1H H 0.74500 0.93009 0.71596
C3H C 0.72245(20) 0.99532(19) 0.62870(15)
H2H H 0.67064 0.99810 0.63763
H3H H 0.73133 0.99443 0.57685
H4H H 0.74616 1.03729 0.64988
C4H C 0.83295(16) 0.91905(15) 0.64929(17)
H5H H 0.85036 0.87468 0.67163
H6H H 0.85827 0.96027 0.67007
H7H H 0.84190 0.91728 0.59744
C5H C 0.71270(11) 0.86197(12) 0.63635(11)
C6H C 0.66944(11) 0.85454(12) 0.57708(11)
H8H H 0.65803 0.89089 0.54312
C7H C 0.60090(11) 0.75279(12) 0.51933(12)
H9H H 0.56824 0.78988 0.49968
H10H H 0.57109 0.71393 0.54005
C8H C 0.64694(15) 0.72252(17) 0.45914(17)
H11H H 0.61587 0.70456 0.42062
H12H H 0.67642 0.68307 0.47773
H13H H 0.67822 0.76040 0.44022
F1F F 0.49498(9) 0.59225(9) 1.01747(10)
O1F O 0.60380(13) 0.47422(12) 0.99800(11)
F1I F 0.48253(9) 0.50502(9) 1.09225(10)
O1I O 0.50200(13) 0.39620(12) 0.97422(11)
#END
