
#######################################################################
#
#                 Cambridge Crystallographic Data Centre
#                                CCDC
#
#######################################################################
#
# If this CIF has been generated from an entry in the Cambridge
# Structural Database, then it will include bibliographic, chemical,
# crystal, experimental, refinement or atomic coordinate data resulting
# from the CCDC's data processing and validation procedures.
#
#######################################################################

data_CSD_CIF_ACAJIX
_audit_creation_date 2001-10-17
_audit_creation_method CSD-ConQuest-V1
_database_code_CSD ACAJIX
_database_code_depnum_ccdc_archive 'CCDC 161822'
_chemical_formula_sum 'C36 H18 F12 Ir1 N3'
_chemical_formula_moiety
;
C36 H18 F12 Ir1 N3
;
_journal_coden_Cambridge 182
_journal_year 2001
_journal_page_first 1494
_journal_name_full 'Chem.Commun. '
loop_
_publ_author_name
"V.V.Grushin"
"N.Herron"
"D.D.LeCloux"
"W.J.Marshall"
"V.A.Petrov"
"Ying Wang"
_chemical_name_systematic
;
tris(2-(4-fluoromethylphenylene)-5-trifluoromethylpyridine)-iridium
;
_chemical_name_common
;
Teaching Subset: Fundamental Chemistry, Symmetry
;
_cell_volume  13297.903
_exptl_crystal_density_diffrn 1.824
_diffrn_ambient_temperature 173
#These two values have been output from a single CSD field.
_refine_ls_R_factor_gt 0.0289
_refine_ls_wR_factor_gt 0.0289
_symmetry_cell_setting cubic
_symmetry_space_group_name_H-M 'I a -3'
_symmetry_Int_Tables_number 206
loop_
_symmetry_equiv_pos_site_id
_symmetry_equiv_pos_as_xyz
1 x,y,z
2 1/2-x,-y,1/2+z
3 1/2+x,1/2-y,-z
4 z,x,y
5 -x,1/2+y,1/2-z
6 1/2-z,-x,1/2+y
7 1/2+z,1/2-x,-y
8 -z,1/2+x,1/2-y
9 y,z,x
10 1/2+y,1/2-z,-x
11 -y,1/2+z,1/2-x
12 1/2-y,-z,1/2+x
13 1/2+x,1/2+y,1/2+z
14 -x,1/2-y,z
15 x,-y,1/2-z
16 1/2+z,1/2+x,1/2+y
17 1/2-x,y,-z
18 -z,1/2-x,y
19 z,-x,1/2-y
20 1/2-z,x,-y
21 1/2+y,1/2+z,1/2+x
22 y,-z,1/2-x
23 1/2-y,z,-x
24 -y,1/2-z,x
25 -x,-y,-z
26 -1/2+x,y,-1/2-z
27 -1/2-x,-1/2+y,z
28 -z,-x,-y
29 x,-1/2-y,-1/2+z
30 -1/2+z,x,-1/2-y
31 -1/2-z,-1/2+x,y
32 z,-1/2-x,-1/2+y
33 -y,-z,-x
34 -1/2-y,-1/2+z,x
35 y,-1/2-z,-1/2+x
36 -1/2+y,z,-1/2-x
37 -1/2-x,-1/2-y,-1/2-z
38 x,-1/2+y,-z
39 -x,y,-1/2+z
40 -1/2-z,-1/2-x,-1/2-y
41 -1/2+x,-y,z
42 z,-1/2+x,-y
43 -z,x,-1/2+y
44 -1/2+z,-x,y
45 -1/2-y,-1/2-z,-1/2-x
46 -y,z,-1/2+x
47 -1/2+y,-z,x
48 y,-1/2+z,-x
_cell_length_a 23.6916(10)
_cell_length_b 23.6916(10)
_cell_length_c 23.6916(10)
_cell_angle_alpha 90
_cell_angle_beta 90
_cell_angle_gamma 90
_cell_formula_units_Z 16
loop_
_atom_type_symbol
_atom_type_radius_bond
C 0.68
H 0.23
F 0.64
Ir 1.32
N 0.68
loop_
_atom_site_label
_atom_site_type_symbol
_atom_site_fract_x
_atom_site_fract_y
_atom_site_fract_z
Ir1 Ir 0.655228(5) -0.155228(5) 0.155228(5)
N1 N 0.63854(15) -0.06908(12) 0.17171(13)
C1 C 0.78148(16) -0.16095(18) 0.18681(16)
H1 H 0.78030 -0.20090 0.18380
C2 C 0.6854(2) -0.03634(17) 0.17883(17)
C3 C 0.73248(15) -0.12900(15) 0.17799(14)
F1 F 0.87812(11) -0.16648(15) 0.20891(15)
C4 C 0.73766(19) -0.06921(17) 0.18357(17)
C5 C 0.5872(2) -0.04486(17) 0.16887(16)
H2 H 0.55500 -0.06830 0.16470
C6 C 0.6272(3) 0.04677(19) 0.1777(3)
H3 H 0.62340 0.08670 0.17900
C7 C 0.6795(3) 0.02236(19) 0.1816(2)
H4 H 0.71200 0.04540 0.18620
C8 C 0.8372(2) -0.0764(3) 0.2030(3)
H5 H 0.87270 -0.05950 0.21080
C9 C 0.5799(3) 0.0128(2) 0.1717(2)
C10 C 0.7900(2) -0.0440(2) 0.1946(2)
H6 H 0.79280 -0.00400 0.19630
C11 C 0.83159(19) -0.1340(2) 0.2000(2)
F2 F 0.48234(19) -0.00092(18) 0.1567(2)
F3 F 0.50644(19) 0.06203(16) 0.21656(18)
F4 F 0.5185(3) 0.07764(18) 0.1290(2)
C12 C 0.5216(4) 0.0375(2) 0.1686(3)
N1F N 0.67171(15) -0.13854(12) 0.06908(13)
C2F C 0.67883(20) -0.18540(17) 0.03634(17)
C4F C 0.68357(19) -0.23766(17) 0.06921(17)
C3F C 0.67799(15) -0.23248(15) 0.12900(14)
N1K N 0.56908(15) -0.17171(12) 0.13854(13)
C2K C 0.53634(20) -0.17883(17) 0.18540(17)
C4K C 0.56921(19) -0.18357(17) 0.23766(17)
C3K C 0.62900(15) -0.17799(15) 0.23248(14)
C1K C 0.66095(16) -0.18681(18) 0.28148(16)
H1K H 0.70090 -0.18380 0.28030
C11K C 0.63400(19) -0.2000(2) 0.33159(20)
F1K F 0.66648(11) -0.20891(15) 0.37812(15)
C8K C 0.5764(2) -0.2030(3) 0.3372(3)
H5K H 0.55950 -0.21080 0.37270
C10K C 0.5440(2) -0.1946(2) 0.2900(2)
H6K H 0.50400 -0.19630 0.29280
C7K C 0.47764(30) -0.18160(19) 0.1795(2)
C6K C 0.45323(30) -0.17770(19) 0.1272(3)
H3K H 0.41330 -0.17900 0.12340
C9K C 0.4872(3) -0.1717(2) 0.0799(2)
C5K C 0.54486(20) -0.16887(17) 0.08720(16)
H2K H 0.56830 -0.16470 0.05500
C12K C 0.4625(4) -0.1686(2) 0.0216(3)
F2K F 0.50092(19) -0.15670(18) -0.01766(20)
F3K F 0.43797(19) -0.21656(16) 0.00644(18)
F4K F 0.42236(30) -0.12900(18) 0.0185(2)
H4K H 0.45460 -0.18620 0.21200
C1F C 0.68681(16) -0.28148(18) 0.16095(16)
H1F H 0.68380 -0.28030 0.20090
C11F C 0.70000(19) -0.33159(20) 0.1340(2)
F1F F 0.70891(11) -0.37812(15) 0.16648(15)
C8F C 0.7030(2) -0.3372(3) 0.0764(3)
H5F H 0.71080 -0.37270 0.05950
C10F C 0.6946(2) -0.2900(2) 0.0440(2)
H6F H 0.69630 -0.29280 0.00400
C7F C 0.6816(3) -0.17950(19) -0.02236(20)
C6F C 0.6777(3) -0.12720(19) -0.04677(30)
H3F H 0.67900 -0.12340 -0.08670
C9F C 0.6717(3) -0.0799(2) -0.0128(2)
C5F C 0.66887(20) -0.08720(17) 0.04486(16)
H2F H 0.66470 -0.05500 0.06830
C12F C 0.6686(4) -0.0216(2) -0.0375(3)
F2F F 0.65670(19) 0.01766(18) 0.00092(20)
F3F F 0.71656(19) -0.00644(16) -0.06203(18)
F4F F 0.6290(3) -0.01850(18) -0.07764(20)
H4F H 0.68620 -0.21200 -0.04540
#END

data_CSD_CIF_AETSMN
_audit_creation_date 1980-08-06
_audit_creation_method CSD-ConQuest-V1
_database_code_CSD AETSMN
_chemical_formula_sum 'C27 H30 Cl3 Mn1 N4 O6'
_chemical_formula_moiety
;
C27 H24 Cl3 Mn1 N4 O3,3(H2 O1)
;
_journal_coden_Cambridge 155
_journal_volume 38
_journal_year 1980
_journal_page_first 107
_journal_name_full 'Inorg.Chim.Acta '
loop_
_publ_author_name
"N.W.Alcock"
"D.F.Cook"
"E.D.McKenzie"
"J.M.Worthington"
_chemical_name_systematic
;
(tris(2-(5'-Chloro-salicylaldiminato)ethyl)amine)-manganese(iii) trihydrate
;
_cell_volume  11375.444
_exptl_crystal_colour 'dark green'
_diffrn_ambient_temperature ?
_diffrn_special_details
;
The study was carried out at room temperature,in the range 283-303K

;
#These two values have been output from a single CSD field.
_refine_ls_R_factor_gt 0.05
_refine_ls_wR_factor_gt 0.05
_symmetry_cell_setting cubic
_symmetry_space_group_name_H-M 'I a 3'
_symmetry_Int_Tables_number 206
loop_
_symmetry_equiv_pos_site_id
_symmetry_equiv_pos_as_xyz
1 x,y,z
2 1/2+x,1/2+y,1/2+z
3 z,x,y
4 y,z,x
5 1/2+z,1/2+x,1/2+y
6 1/2+y,1/2+z,1/2+x
7 1/2+x,y,1/2-z
8 x,1/2+y,-z
9 1/2+z,x,1/2-y
10 1/2+y,z,1/2-x
11 z,1/2+x,-y
12 y,1/2+z,-x
13 1/2-x,1/2+y,z
14 -x,y,1/2+z
15 1/2-z,1/2+x,y
16 1/2-y,1/2+z,x
17 -z,x,1/2+y
18 -y,z,1/2+x
19 -x,1/2+y,1/2-z
20 1/2-x,y,-z
21 -z,1/2+x,1/2-y
22 -y,1/2+z,1/2-x
23 1/2-z,x,-y
24 1/2-y,z,-x
25 -x,-y,-z
26 -1/2-x,-1/2-y,-1/2-z
27 -z,-x,-y
28 -y,-z,-x
29 -1/2-z,-1/2-x,-1/2-y
30 -1/2-y,-1/2-z,-1/2-x
31 -1/2-x,-y,-1/2+z
32 -x,-1/2-y,z
33 -1/2-z,-x,-1/2+y
34 -1/2-y,-z,-1/2+x
35 -z,-1/2-x,y
36 -y,-1/2-z,x
37 -1/2+x,-1/2-y,-z
38 x,-y,-1/2-z
39 -1/2+z,-1/2-x,-y
40 -1/2+y,-1/2-z,-x
41 z,-x,-1/2-y
42 y,-z,-1/2-x
43 x,-1/2-y,-1/2+z
44 -1/2+x,-y,z
45 z,-1/2-x,-1/2+y
46 y,-1/2-z,-1/2+x
47 -1/2+z,-x,y
48 -1/2+y,-z,x
_cell_length_a 22.490(2)
_cell_length_b 22.490(2)
_cell_length_c 22.490(2)
_cell_angle_alpha 90
_cell_angle_beta 90
_cell_angle_gamma 90
_cell_formula_units_Z 16
loop_
_atom_type_symbol
_atom_type_radius_bond
C 0.68
H 0.23
Cl 0.99
Mn 1.35
N 0.68
O 0.68
loop_
_atom_site_label
_atom_site_type_symbol
_atom_site_fract_x
_atom_site_fract_y
_atom_site_fract_z
Mn1 Mn 0.13754 0.13754 0.13754
Cl1 Cl 0.18780 0.40040 -0.05290
N1 N 0.05460 0.05460 0.05460
N2 N 0.15170 0.13660 0.04360
O1 O 0.14210 0.22470 0.13360
O2 O 0.24610 0.15050 0.28650
C1 C 0.09080 0.05570 0.00160
C2 C 0.15390 0.07770 0.01420
C3 C 0.16400 0.18270 0.01180
C4 C 0.16260 0.24400 0.02980
C5 C 0.15140 0.26190 0.08960
C6 C 0.15130 0.32360 0.10190
C7 C 0.16160 0.36480 0.05840
C8 C 0.17260 0.34620 0.00120
C9 C 0.17320 0.28730 -0.01380
H1 H 0.09300 0.01500 -0.01400
H2 H 0.07200 0.08200 -0.02800
H3 H 0.17500 0.04900 0.04000
H4 H 0.17700 0.08100 -0.02300
H5 H 0.17600 0.17500 -0.03000
H6 H 0.14400 0.33700 0.14400
H7 H 0.16100 0.40800 0.06900
H8 H 0.18100 0.27400 -0.05600
N2B N 0.04360 0.15170 0.13660
N2C N 0.13660 0.04360 0.15170
O1B O 0.13360 0.14210 0.22470
O1C O 0.22470 0.13360 0.14210
C1B C 0.00160 0.09080 0.05570
C1C C 0.05570 0.00160 0.09080
C2B C 0.01420 0.15390 0.07770
C3B C 0.01180 0.16400 0.18270
C2C C 0.07770 0.01420 0.15390
C3C C 0.18270 0.01180 0.16400
C5B C 0.08960 0.15140 0.26190
C5C C 0.26190 0.08960 0.15140
H1B H -0.01400 0.09300 0.01500
H2B H -0.02800 0.07200 0.08200
H1C H 0.01500 -0.01400 0.09300
H2C H 0.08200 -0.02800 0.07200
H3B H 0.04000 0.17500 0.04900
H4B H -0.02300 0.17700 0.08100
C4B C 0.02980 0.16260 0.24400
H5B H -0.03000 0.17600 0.17500
H3C H 0.04900 0.04000 0.17500
H4C H 0.08100 -0.02300 0.17700
C4C C 0.24400 0.02980 0.16260
H5C H 0.17500 -0.03000 0.17600
C6B C 0.10190 0.15130 0.32360
C6C C 0.32360 0.10190 0.15130
C9B C -0.01380 0.17320 0.28730
C9C C 0.28730 -0.01380 0.17320
C7B C 0.05840 0.16160 0.36480
H6B H 0.14400 0.14400 0.33700
C7C C 0.36480 0.05840 0.16160
H6C H 0.33700 0.14400 0.14400
C8B C 0.00120 0.17260 0.34620
H8B H -0.05600 0.18100 0.27400
C8C C 0.34620 0.00120 0.17260
H8C H 0.27400 -0.05600 0.18100
H7B H 0.06900 0.16100 0.40800
H7C H 0.40800 0.06900 0.16100
Cl1B Cl -0.05290 0.18780 0.40040
Cl1C Cl 0.40040 -0.05290 0.18780
#END

data_CSD_CIF_CADXOU
_audit_creation_date 1984-04-14
_audit_creation_method CSD-ConQuest-V1
_database_code_CSD CADXOU
_database_code_depnum_ccdc_archive 'CCDC 1118967'
_chemical_formula_sum 'C6 H12 Ag3 As3 F18 O6'
_chemical_formula_moiety
;
C6 H12 Ag2 O6 2+,3(As1 F6 1-),Ag1 1+
;
_journal_coden_Cambridge 182
_journal_year 1983
_journal_page_first 981
_journal_name_full 'Chem.Commun. '
loop_
_publ_author_name
"H.W.Roesky"
"E.Peymann"
"J.Schimkowiak"
"M.Noltemeyer"
"W.Pinkert"
"G.M.Sheldrick"
_chemical_name_systematic
;
(1,3,5,7,9,11-Hexaoxacyclododecane-(O^1^,O^5^,O^9^-Ag^1^,O^3^,O^7^,O^11^-Ag^2^
))-di-silver silver tris(hexafluoro-arsenic)
;
_cell_volume   4391.607
_exptl_crystal_density_diffrn 3.238
_diffrn_ambient_temperature ?
_diffrn_special_details
;
The study was carried out at room temperature,in the range 283-303K

;
#These two values have been output from a single CSD field.
_refine_ls_R_factor_gt 0.039
_refine_ls_wR_factor_gt 0.039
_symmetry_cell_setting cubic
_symmetry_space_group_name_H-M 'I a 3'
_symmetry_Int_Tables_number 206
loop_
_symmetry_equiv_pos_site_id
_symmetry_equiv_pos_as_xyz
1 x,y,z
2 1/2+x,1/2+y,1/2+z
3 z,x,y
4 y,z,x
5 1/2+z,1/2+x,1/2+y
6 1/2+y,1/2+z,1/2+x
7 -x,1/2+y,1/2-z
8 1/2-x,y,-z
9 -z,1/2+x,1/2-y
10 -y,1/2+z,1/2-x
11 1/2-z,x,-y
12 1/2-y,z,-x
13 1/2-x,-y,1/2+z
14 -x,1/2-y,z
15 1/2-z,-x,1/2+y
16 1/2-y,-z,1/2+x
17 -z,1/2-x,y
18 -y,1/2-z,x
19 1/2+x,1/2-y,-z
20 x,-y,1/2-z
21 1/2+z,1/2-x,-y
22 1/2+y,1/2-z,-x
23 z,-x,1/2-y
24 y,-z,1/2-x
25 -x,-y,-z
26 -1/2-x,-1/2-y,-1/2-z
27 -z,-x,-y
28 -y,-z,-x
29 -1/2-z,-1/2-x,-1/2-y
30 -1/2-y,-1/2-z,-1/2-x
31 x,-1/2-y,-1/2+z
32 -1/2+x,-y,z
33 z,-1/2-x,-1/2+y
34 y,-1/2-z,-1/2+x
35 -1/2+z,-x,y
36 -1/2+y,-z,x
37 -1/2+x,y,-1/2-z
38 x,-1/2+y,-z
39 -1/2+z,x,-1/2-y
40 -1/2+y,z,-1/2-x
41 z,-1/2+x,-y
42 y,-1/2+z,-x
43 -1/2-x,-1/2+y,z
44 -x,y,-1/2+z
45 -1/2-z,-1/2+x,y
46 -1/2-y,-1/2+z,x
47 -z,x,-1/2+y
48 -y,z,-1/2+x
_cell_length_a 16.376(2)
_cell_length_b 16.376(2)
_cell_length_c 16.376(2)
_cell_angle_alpha 90
_cell_angle_beta 90
_cell_angle_gamma 90
_cell_formula_units_Z 8
loop_
_atom_type_symbol
_atom_type_radius_bond
C 0.68
H 0.23
Ag 1.54
As 1.21
F 0.64
O 0.68
loop_
_atom_site_label
_atom_site_type_symbol
_atom_site_fract_x
_atom_site_fract_y
_atom_site_fract_z
Ag1 Ag 0.08260 0.08260 0.08260
O1 O -0.05360 0.02420 0.10640
C1 C -0.11890 0.05930 0.06040
H1 H -0.12380 0.11590 0.07480
H2 H -0.16860 0.03130 0.07390
Ag2 Ag 0.25000 0.25000 0.25000
As1 As 0.21740 0.00000 0.25000
F1 F 0.32100 0.00000 0.25000
F2 F 0.11360 0.00000 0.25000
F3 F 0.21700 0.04100 0.15460
F4 F 0.21730 0.09690 0.29230
O1B O 0.10640 -0.05360 0.02420
O1C O 0.02420 0.10640 -0.05360
C1AA C -0.05930 -0.06040 0.11890
O1Z O -0.10640 0.05360 -0.02420
C1X C 0.11890 -0.05930 -0.06040
C1B C 0.06040 -0.11890 0.05930
C1Z C -0.06040 0.11890 -0.05930
C1C C 0.05930 0.06040 -0.11890
O1AA O -0.02420 -0.10640 0.05360
H1AA H -0.11590 -0.07480 0.12380
H2AA H -0.03130 -0.07390 0.16860
Ag1X Ag -0.08260 -0.08260 -0.08260
O1X O 0.05360 -0.02420 -0.10640
H1X H 0.12380 -0.11590 -0.07480
H2X H 0.16860 -0.03130 -0.07390
H1B H 0.07480 -0.12380 0.11590
H2B H 0.07390 -0.16860 0.03130
H1Z H -0.07480 0.12380 -0.11590
H2Z H -0.07390 0.16860 -0.03130
H1C H 0.11590 0.07480 -0.12380
H2C H 0.03130 0.07390 -0.16860
F3S F 0.21700 -0.04100 0.34540
F4S F 0.21730 -0.09690 0.20770
#END

data_CSD_CIF_CIXWOW
_audit_creation_date 2008-08-28
_audit_creation_method CSD-ConQuest-V1
_database_code_CSD CIXWOW
_database_code_depnum_ccdc_archive 'CCDC 657991'
_chemical_formula_sum 'C94 H108 Co2 O6 P6 S1'
_chemical_formula_moiety
;
C82 H78 Co2 P6 S1,3(C4 H10 O2)
;
_journal_coden_Cambridge 1290
_journal_year 2008
_journal_page_first 1423
_journal_name_full 'Eur.J.Inorg.Chem. '
loop_
_publ_author_name
"J.Mautz"
"G.Huttner"
_chemical_name_systematic
;
(\m~2~-Sulfido)-bis(1,1,1-tris(diphenylphosphinomethyl)ethane-P,P',P'')-di-cob
alt(i) 1,2-dimethoxyethane solvate
;
_cell_volume  17073.859
_exptl_crystal_colour 'dark green'
_exptl_crystal_density_diffrn 1.299
_exptl_crystal_description 'cubic'
_exptl_crystal_preparation '1,2-dimethoxyethane'
_diffrn_ambient_temperature 200
#These two values have been output from a single CSD field.
_refine_ls_R_factor_gt 0.0477
_refine_ls_wR_factor_gt 0.0477
_symmetry_cell_setting cubic
_symmetry_space_group_name_H-M 'I a -3'
_symmetry_Int_Tables_number 206
loop_
_symmetry_equiv_pos_site_id
_symmetry_equiv_pos_as_xyz
1 x,y,z
2 z,x,y
3 y,z,x
4 1/2+x,1/2+y,1/2+z
5 1/2+z,1/2+x,1/2+y
6 1/2+y,1/2+z,1/2+x
7 1/2-x,-y,1/2+z
8 -x,1/2+y,1/2-z
9 1/2+x,1/2-y,-z
10 1/2+z,1/2-x,-y
11 1/2-z,-x,1/2+y
12 -z,1/2+x,1/2-y
13 -y,1/2+z,1/2-x
14 1/2+y,1/2-z,-x
15 1/2-y,-z,1/2+x
16 -x,1/2-y,z
17 1/2-x,y,-z
18 x,-y,1/2-z
19 z,-x,1/2-y
20 -z,1/2-x,y
21 1/2-z,x,-y
22 1/2-y,z,-x
23 y,-z,1/2-x
24 -y,1/2-z,x
25 -x,-y,-z
26 -z,-x,-y
27 -y,-z,-x
28 -1/2-x,-1/2-y,-1/2-z
29 -1/2-z,-1/2-x,-1/2-y
30 -1/2-y,-1/2-z,-1/2-x
31 -1/2+x,y,-1/2-z
32 x,-1/2-y,-1/2+z
33 -1/2-x,-1/2+y,z
34 -1/2-z,-1/2+x,y
35 -1/2+z,x,-1/2-y
36 z,-1/2-x,-1/2+y
37 y,-1/2-z,-1/2+x
38 -1/2-y,-1/2+z,x
39 -1/2+y,z,-1/2-x
40 x,-1/2+y,-z
41 -1/2+x,-y,z
42 -x,y,-1/2+z
43 -z,x,-1/2+y
44 z,-1/2+x,-y
45 -1/2+z,-x,y
46 -1/2+y,-z,x
47 -y,z,-1/2+x
48 y,-1/2+z,-x
_cell_length_a 25.750(3)
_cell_length_b 25.750(3)
_cell_length_c 25.750(3)
_cell_angle_alpha 90
_cell_angle_beta 90
_cell_angle_gamma 90
_cell_formula_units_Z 8
loop_
_atom_type_symbol
_atom_type_radius_bond
C 0.68
H 0.23
Co 1.33
O 0.68
P 1.05
S 1.02
loop_
_atom_site_label
_atom_site_type_symbol
_atom_site_fract_x
_atom_site_fract_y
_atom_site_fract_z
Co1 Co 0.796166(14) 0.296166(14) 0.203834(14)
S1 S 0.75000 0.25000 0.25000
P1 P 0.87842(3) 0.28279(3) 0.19085(3)
C1 C 0.90435(11) 0.32312(11) 0.13755(11)
H1 H 0.94070 0.33240 0.14600
H2 H 0.90500 0.30190 0.10550
C2 C 0.87384(10) 0.37384(10) 0.12616(10)
C3 C 0.90836(11) 0.40836(11) 0.09164(11)
H3 H 0.88890 0.43940 0.08130
H4 H 0.91870 0.38890 0.06060
H5 H 0.93940 0.41870 0.11110
C4 C 0.90175(11) 0.21731(11) 0.17301(11)
C5 C 0.93722(11) 0.20734(12) 0.13353(11)
H6 H 0.95200 0.23540 0.11470
C6 C 0.95127(12) 0.15662(12) 0.12133(12)
H7 H 0.97540 0.15020 0.09420
C7 C 0.93025(13) 0.11559(12) 0.14864(13)
H8 H 0.94010 0.08100 0.14040
C8 C 0.89462(13) 0.12490(12) 0.18823(13)
H9 H 0.88000 0.09670 0.20710
C9 C 0.88044(12) 0.17579(12) 0.20007(11)
H10 H 0.85590 0.18210 0.22690
C10 C 0.92062(11) 0.29754(10) 0.24698(11)
C11 C 0.89723(11) 0.29642(11) 0.29555(11)
H11 H 0.86130 0.28850 0.29830
C12 C 0.92572(12) 0.30681(12) 0.33999(12)
H12 H 0.90930 0.30590 0.37300
C13 C 0.97815(12) 0.31859(12) 0.33640(12)
H13 H 0.99760 0.32590 0.36690
C14 C 1.00192(12) 0.31961(13) 0.28849(12)
H14 H 1.03790 0.32730 0.28590
C15 C 0.97341(11) 0.30942(12) 0.24398(12)
H15 H 0.99000 0.31050 0.21100
O1 O 0.98523(14) -0.00341(14) 0.1786(2)
C16 C 0.9809(2) -0.0415(2) 0.1398(4)
H16 H 1.00900 -0.06690 0.14370
H17 H 0.98340 -0.02500 0.10560
H18 H 0.94730 -0.05910 0.14300
C17 C 0.9842(2) -0.02375(19) 0.2332(2)
H19 H 0.95260 -0.04480 0.23930
H20 H 1.01510 -0.04550 0.24020
Co1RA Co 0.703834(14) 0.203834(14) 0.296166(14)
P1TA P 0.71721(3) 0.19085(3) 0.37842(3)
P1RA P 0.69085(3) 0.12158(3) 0.28279(3)
P1AA P 0.62158(3) 0.21721(3) 0.30915(3)
P1M P 0.78279(3) 0.30915(3) 0.12158(3)
P1K P 0.80915(3) 0.37842(3) 0.21721(3)
C1TA C 0.67688(11) 0.13755(11) 0.40435(11)
C1RA C 0.63755(11) 0.09565(11) 0.32312(11)
C1AA C 0.59565(11) 0.17688(11) 0.36245(11)
C1M C 0.82312(11) 0.36245(11) 0.09565(11)
C1K C 0.86245(11) 0.40435(11) 0.17688(11)
H1TA H 0.66760 0.14600 0.44070
H1AA H 0.55930 0.16760 0.35400
H1RA H 0.64600 0.05930 0.33240
H1K H 0.85400 0.44070 0.16760
H1M H 0.83240 0.35400 0.05930
H2TA H 0.69810 0.10550 0.40500
H2AA H 0.59500 0.19810 0.39450
H2RA H 0.60550 0.09500 0.30190
H2K H 0.89450 0.40500 0.19810
H2M H 0.80190 0.39450 0.09500
C2RA C 0.62616(10) 0.12616(10) 0.37384(10)
C3RA C 0.59164(11) 0.09164(11) 0.40836(11)
H3TA H 0.56060 0.08130 0.38890
H3AA H 0.61110 0.06060 0.41870
H3RA H 0.58130 0.11110 0.43940
C4AA C 0.59825(11) 0.28269(11) 0.32699(11)
C4RA C 0.67301(11) 0.09825(11) 0.21731(11)
C4TA C 0.78269(11) 0.17301(11) 0.40175(11)
C4K C 0.82699(11) 0.40175(11) 0.28269(11)
C4M C 0.71731(11) 0.32699(11) 0.09825(11)
C5AA C 0.56278(11) 0.29266(12) 0.36647(11)
C5RA C 0.63353(11) 0.06278(12) 0.20734(11)
C5TA C 0.79266(11) 0.13353(12) 0.43722(11)
C5K C 0.86647(11) 0.43722(12) 0.29266(11)
C5M C 0.70734(11) 0.36647(12) 0.06278(11)
H6AA H 0.54800 0.26460 0.38530
H6RA H 0.61470 0.04800 0.23540
H6TA H 0.76460 0.11470 0.45200
H6K H 0.88530 0.45200 0.26460
H6M H 0.73540 0.38530 0.04800
C6AA C 0.54873(12) 0.34338(12) 0.37867(12)
C6RA C 0.62133(12) 0.04873(12) 0.15662(12)
C6TA C 0.84338(12) 0.12133(12) 0.45127(12)
C6K C 0.87867(12) 0.45127(12) 0.34338(12)
C6M C 0.65662(12) 0.37867(12) 0.04873(12)
H7AA H 0.52460 0.34980 0.40580
H7RA H 0.59420 0.02460 0.15020
H7TA H 0.84980 0.09420 0.47540
H7K H 0.90580 0.47540 0.34980
H7M H 0.65020 0.40580 0.02460
C7AA C 0.56975(13) 0.38441(12) 0.35136(13)
C7RA C 0.64864(13) 0.06975(12) 0.11559(13)
C7TA C 0.88441(13) 0.14864(12) 0.43025(13)
C7K C 0.85136(13) 0.43025(12) 0.38441(13)
C7M C 0.61559(13) 0.35136(12) 0.06975(13)
H8AA H 0.55990 0.41900 0.35960
H8RA H 0.64040 0.05990 0.08100
H8TA H 0.91900 0.14040 0.44010
H8K H 0.85960 0.44010 0.41900
H8M H 0.58100 0.35960 0.05990
C8AA C 0.60538(13) 0.37510(12) 0.31177(13)
C8RA C 0.68823(13) 0.10538(12) 0.12490(13)
C8TA C 0.87510(13) 0.18823(12) 0.39462(13)
C8K C 0.81177(13) 0.39462(12) 0.37510(13)
C8M C 0.62490(13) 0.31177(12) 0.10538(13)
H9AA H 0.62000 0.40330 0.29290
H9RA H 0.70710 0.12000 0.09670
H9TA H 0.90330 0.20710 0.38000
H9K H 0.79290 0.38000 0.40330
H9M H 0.59670 0.29290 0.12000
C9AA C 0.61956(12) 0.32421(12) 0.29993(11)
C9RA C 0.70007(12) 0.11956(12) 0.17579(11)
C9TA C 0.82421(12) 0.20007(12) 0.38044(11)
C9K C 0.79993(12) 0.38044(12) 0.32421(11)
C9M C 0.67579(12) 0.29993(12) 0.11956(11)
H10AA H 0.64410 0.31790 0.27310
H10RA H 0.72690 0.14410 0.18210
H10TA H 0.81790 0.22690 0.35590
H10K H 0.77310 0.35590 0.31790
H10M H 0.68210 0.27310 0.14410
C10AA C 0.57938(11) 0.20246(10) 0.25302(11)
C10RA C 0.74698(11) 0.07938(10) 0.29754(11)
C10TA C 0.70246(11) 0.24698(10) 0.42062(11)
C10K C 0.75302(11) 0.42062(10) 0.20246(11)
C10M C 0.79754(11) 0.25302(10) 0.07938(11)
C11AA C 0.60277(11) 0.20358(11) 0.20445(11)
C11RA C 0.79555(11) 0.10277(11) 0.29642(11)
C11TA C 0.70358(11) 0.29555(11) 0.39723(11)
C11K C 0.70445(11) 0.39723(11) 0.20358(11)
C11M C 0.79642(11) 0.20445(11) 0.10277(11)
H11AA H 0.63870 0.21150 0.20170
H11RA H 0.79830 0.13870 0.28850
H11TA H 0.71150 0.29830 0.36130
H11K H 0.70170 0.36130 0.21150
H11M H 0.78850 0.20170 0.13870
C12AA C 0.57428(12) 0.19319(12) 0.16001(12)
C12RA C 0.83999(12) 0.07428(12) 0.30681(12)
C12TA C 0.69319(12) 0.33999(12) 0.42572(12)
C12K C 0.66001(12) 0.42572(12) 0.19319(12)
C12M C 0.80681(12) 0.16001(12) 0.07428(12)
H12AA H 0.59070 0.19410 0.12700
H12RA H 0.87300 0.09070 0.30590
H12TA H 0.69410 0.37300 0.40930
H12K H 0.62700 0.40930 0.19410
H12M H 0.80590 0.12700 0.09070
C13AA C 0.52185(12) 0.18141(12) 0.16360(12)
C13RA C 0.83640(12) 0.02185(12) 0.31859(12)
C13TA C 0.68141(12) 0.33640(12) 0.47815(12)
C13K C 0.66360(12) 0.47815(12) 0.18141(12)
C13M C 0.81859(12) 0.16360(12) 0.02185(12)
H13AA H 0.50240 0.17410 0.13310
H13RA H 0.86690 0.00240 0.32590
H13TA H 0.67410 0.36690 0.49760
H13K H 0.63310 0.49760 0.17410
H13M H 0.82590 0.13310 0.00240
C14AA C 0.49808(12) 0.18039(13) 0.21151(12)
C14RA C 0.78849(12) -0.00192(13) 0.31961(12)
C14TA C 0.68039(12) 0.28849(13) 0.50192(12)
C14K C 0.71151(12) 0.50192(13) 0.18039(12)
C14M C 0.81961(12) 0.21151(13) -0.00192(12)
H14AA H 0.46210 0.17270 0.21410
H14RA H 0.78590 -0.03790 0.32730
H14TA H 0.67270 0.28590 0.53790
H14K H 0.71410 0.53790 0.17270
H14M H 0.82730 0.21410 -0.03790
C15AA C 0.52659(11) 0.19058(12) 0.25602(12)
C15RA C 0.74398(11) 0.02659(12) 0.30942(12)
C15TA C 0.69058(11) 0.24398(12) 0.47341(12)
C15K C 0.75602(11) 0.47341(12) 0.19058(12)
C15M C 0.80942(11) 0.25602(12) 0.02659(12)
H15AA H 0.51000 0.18950 0.28900
H15RA H 0.71100 0.01000 0.31050
H15TA H 0.68950 0.21100 0.49000
H15K H 0.78900 0.49000 0.18950
H15M H 0.81050 0.28900 0.01000
O1Q O 0.98523(14) 0.00341(14) 0.3214(2)
C16Q C 0.9809(2) 0.0415(2) 0.3602(4)
H16Q H 1.00900 0.06690 0.35630
H17Q H 0.98340 0.02500 0.39440
H18Q H 0.94730 0.05910 0.35700
C17Q C 0.9842(2) 0.02375(19) 0.2668(2)
H19Q H 0.95260 0.04480 0.26070
H20Q H 1.01510 0.04550 0.25980
#END

data_CSD_CIF_CIXYEO
_audit_creation_date 2008-08-28
_audit_creation_method CSD-ConQuest-V1
_database_code_CSD CIXYEO
_database_code_depnum_ccdc_archive 'CCDC 657999'
_chemical_formula_sum 'C94 H108 Co2 O6 P6 Se1'
_chemical_formula_moiety
;
C82 H78 Co2 P6 Se1,3(C4 H10 O2)
;
_journal_coden_Cambridge 1290
_journal_year 2008
_journal_page_first 1423
_journal_name_full 'Eur.J.Inorg.Chem. '
loop_
_publ_author_name
"J.Mautz"
"G.Huttner"
_chemical_name_systematic
;
(\m~2~-Selenido)-bis(1,1,1-tris(diphenylphosphinomethyl)ethane-P,P',P'')-di-co
balt(i) 1,2-dimethoxyethane sovate
;
_cell_volume  17089.778
_exptl_crystal_colour 'dark green'
_exptl_crystal_density_diffrn 1.334
_exptl_crystal_description 'cubic'
_exptl_crystal_preparation '1,2-dimethoxyethane'
_diffrn_ambient_temperature 200
#These two values have been output from a single CSD field.
_refine_ls_R_factor_gt 0.0386
_refine_ls_wR_factor_gt 0.0386
_symmetry_cell_setting cubic
_symmetry_space_group_name_H-M 'I a -3'
_symmetry_Int_Tables_number 206
loop_
_symmetry_equiv_pos_site_id
_symmetry_equiv_pos_as_xyz
1 x,y,z
2 z,x,y
3 y,z,x
4 1/2+x,1/2+y,1/2+z
5 1/2+z,1/2+x,1/2+y
6 1/2+y,1/2+z,1/2+x
7 1/2-x,-y,1/2+z
8 -x,1/2+y,1/2-z
9 1/2+x,1/2-y,-z
10 1/2+z,1/2-x,-y
11 1/2-z,-x,1/2+y
12 -z,1/2+x,1/2-y
13 -y,1/2+z,1/2-x
14 1/2+y,1/2-z,-x
15 1/2-y,-z,1/2+x
16 -x,1/2-y,z
17 1/2-x,y,-z
18 x,-y,1/2-z
19 z,-x,1/2-y
20 -z,1/2-x,y
21 1/2-z,x,-y
22 1/2-y,z,-x
23 y,-z,1/2-x
24 -y,1/2-z,x
25 -x,-y,-z
26 -z,-x,-y
27 -y,-z,-x
28 -1/2-x,-1/2-y,-1/2-z
29 -1/2-z,-1/2-x,-1/2-y
30 -1/2-y,-1/2-z,-1/2-x
31 -1/2+x,y,-1/2-z
32 x,-1/2-y,-1/2+z
33 -1/2-x,-1/2+y,z
34 -1/2-z,-1/2+x,y
35 -1/2+z,x,-1/2-y
36 z,-1/2-x,-1/2+y
37 y,-1/2-z,-1/2+x
38 -1/2-y,-1/2+z,x
39 -1/2+y,z,-1/2-x
40 x,-1/2+y,-z
41 -1/2+x,-y,z
42 -x,y,-1/2+z
43 -z,x,-1/2+y
44 z,-1/2+x,-y
45 -1/2+z,-x,y
46 -1/2+y,-z,x
47 -y,z,-1/2+x
48 y,-1/2+z,-x
_cell_length_a 25.758(3)
_cell_length_b 25.758(3)
_cell_length_c 25.758(3)
_cell_angle_alpha 90
_cell_angle_beta 90
_cell_angle_gamma 90
_cell_formula_units_Z 8
loop_
_atom_type_symbol
_atom_type_radius_bond
C 0.68
H 0.23
Co 1.33
O 0.68
P 1.05
Se 1.22
loop_
_atom_site_label
_atom_site_type_symbol
_atom_site_fract_x
_atom_site_fract_y
_atom_site_fract_z
Se1 Se 0.00000 0.00000 0.00000
Co1 Co 0.048495(11) 0.048495(11) 0.048495(11)
P1 P 0.13034(2) 0.06093(2) 0.03449(2)
C1 C 0.15635(9) 0.11401(9) 0.07529(9)
H1 H 0.19250 0.10530 0.08500
H2 H 0.15750 0.14610 0.05420
C2 C 0.12544(8) 0.12544(8) 0.12544(8)
C3 C 0.16010(9) 0.16010(9) 0.16010(9)
H3 H 0.17190 0.19020 0.14010
H4 H 0.19020 0.14010 0.17190
H5 H 0.14010 0.17190 0.19020
C4 C 0.15277(9) 0.07899(9) -0.03103(9)
C5 C 0.18731(9) 0.11928(9) -0.04174(10)
H6 H 0.20190 0.13870 -0.01400
C6 C 0.20065(10) 0.13128(10) -0.0926(1)
H7 H 0.22420 0.15890 -0.09940
C7 C 0.17988(10) 0.10328(10) -0.13327(10)
H8 H 0.18930 0.11140 -0.16800
C8 C 0.14519(11) 0.06331(10) -0.12334(10)
H9 H 0.13070 0.04410 -0.15130
C9 C 0.13167(10) 0.05143(9) -0.07265(10)
H10 H 0.10770 0.02420 -0.06610
C10 C 0.17219(9) 0.00434(9) 0.04829(8)
C11 C 0.22516(9) 0.00729(10) 0.06049(9)
H11 H 0.24190 0.04010 0.06200
C12 C 0.25318(10) -0.03772(10) 0.07028(10)
H12 H 0.28900 -0.03550 0.07860
C13 C 0.22927(10) -0.08579(10) 0.06798(10)
H13 H 0.24860 -0.11650 0.07460
C14 C 0.17699(10) -0.08872(9) 0.05600(9)
H14 H 0.16030 -0.12160 0.05510
C15 C 0.14877(6) -0.04444(7) 0.04536(6)
H15 H 0.11320 -0.04720 0.03600
O1 O 0.23370(6) 0.07045(7) -0.25261(6)
C16 C 0.22900(6) 0.10845(7) -0.29151(6)
H16 H 0.25520 0.10240 -0.31840
H17 H 0.23420 0.14290 -0.27630
H18 H 0.19430 0.10660 -0.30700
C17 C 0.23170(6) 0.01875(7) -0.27261(6)
H19 H 0.26220 0.01220 -0.29510
H20 H 0.19990 0.01400 -0.29360
Co1X Co -0.048495(11) -0.048495(11) -0.048495(11)
P1B P 0.06093(2) 0.03449(2) 0.13034(2)
P1A P 0.03449(2) 0.13034(2) 0.06093(2)
P1X P -0.13034(2) -0.06093(2) -0.03449(2)
P1Z P -0.06093(2) -0.03449(2) -0.13034(2)
P1Y P -0.03449(2) -0.13034(2) -0.06093(2)
C1B C 0.11401(9) 0.07529(9) 0.15635(9)
C1A C 0.07529(9) 0.15635(9) 0.11401(9)
C1X C -0.15635(9) -0.11401(9) -0.07529(9)
C1Z C -0.11401(9) -0.07529(9) -0.15635(9)
C1Y C -0.07529(9) -0.15635(9) -0.11401(9)
H1A H 0.08500 0.19250 0.10530
H1B H 0.10530 0.08500 0.19250
H1X H -0.19250 -0.10530 -0.08500
H1Y H -0.08500 -0.19250 -0.10530
H1Z H -0.10530 -0.08500 -0.19250
H2A H 0.05420 0.15750 0.14610
H2B H 0.14610 0.05420 0.15750
H2X H -0.15750 -0.14610 -0.05420
H2Y H -0.05420 -0.15750 -0.14610
H2Z H -0.14610 -0.05420 -0.15750
C2X C -0.12544(8) -0.12544(8) -0.12544(8)
C3X C -0.16010(9) -0.16010(9) -0.16010(9)
H3X H -0.17190 -0.19020 -0.14010
H3Y H -0.14010 -0.17190 -0.19020
H3Z H -0.19020 -0.14010 -0.17190
C4A C -0.03103(9) 0.15277(9) 0.07899(9)
C4B C 0.07899(9) -0.03103(9) 0.15277(9)
C4Y C 0.03103(9) -0.15277(9) -0.07899(9)
C4Z C -0.07899(9) 0.03103(9) -0.15277(9)
C4X C -0.15277(9) -0.07899(9) 0.03103(9)
C5A C -0.04174(9) 0.18731(9) 0.11928(10)
C5B C 0.11928(9) -0.04174(9) 0.18731(10)
C5Y C 0.04174(9) -0.18731(9) -0.11928(10)
C5Z C -0.11928(9) 0.04174(9) -0.18731(10)
C5X C -0.18731(9) -0.11928(9) 0.04174(10)
H6A H -0.01400 0.20190 0.13870
H6B H 0.13870 -0.01400 0.20190
H6Y H 0.01400 -0.20190 -0.13870
H6Z H -0.13870 0.01400 -0.20190
H6X H -0.20190 -0.13870 0.01400
C6A C -0.0926(1) 0.20065(10) 0.13128(10)
C6B C 0.13128(10) -0.0926(1) 0.20065(10)
C6Y C 0.0926(1) -0.20065(10) -0.13128(10)
C6Z C -0.13128(10) 0.0926(1) -0.20065(10)
C6X C -0.20065(10) -0.13128(10) 0.0926(1)
H7A H -0.09940 0.22420 0.15890
H7B H 0.15890 -0.09940 0.22420
H7Y H 0.09940 -0.22420 -0.15890
H7Z H -0.15890 0.09940 -0.22420
H7X H -0.22420 -0.15890 0.09940
C7A C -0.13327(10) 0.17988(10) 0.10328(10)
C7B C 0.10328(10) -0.13327(10) 0.17988(10)
C7Y C 0.13327(10) -0.17988(10) -0.10328(10)
C7Z C -0.10328(10) 0.13327(10) -0.17988(10)
C7X C -0.17988(10) -0.10328(10) 0.13327(10)
H8A H -0.16800 0.18930 0.11140
H8B H 0.11140 -0.16800 0.18930
H8Y H 0.16800 -0.18930 -0.11140
H8Z H -0.11140 0.16800 -0.18930
H8X H -0.18930 -0.11140 0.16800
C8A C -0.12334(11) 0.14519(10) 0.06331(10)
C8B C 0.06331(11) -0.12334(10) 0.14519(10)
C8Y C 0.12334(11) -0.14519(10) -0.06331(10)
C8Z C -0.06331(11) 0.12334(10) -0.14519(10)
C8X C -0.14519(11) -0.06331(10) 0.12334(10)
H9A H -0.15130 0.13070 0.04410
H9B H 0.04410 -0.15130 0.13070
H9Y H 0.15130 -0.13070 -0.04410
H9Z H -0.04410 0.15130 -0.13070
H9X H -0.13070 -0.04410 0.15130
C9A C -0.07265(10) 0.13167(9) 0.05143(10)
C9B C 0.05143(10) -0.07265(9) 0.13167(10)
C9Y C 0.07265(10) -0.13167(9) -0.05143(10)
C9Z C -0.05143(10) 0.07265(9) -0.13167(10)
C9X C -0.13167(10) -0.05143(9) 0.07265(10)
H10A H -0.06610 0.10770 0.02420
H10B H 0.02420 -0.06610 0.10770
H10Y H 0.06610 -0.10770 -0.02420
H10Z H -0.02420 0.06610 -0.10770
H10X H -0.10770 -0.02420 0.06610
C10A C 0.04829(9) 0.17219(9) 0.00434(8)
C10B C 0.00434(9) 0.04829(9) 0.17219(8)
C10Y C -0.04829(9) -0.17219(9) -0.00434(8)
C10Z C -0.00434(9) -0.04829(9) -0.17219(8)
C10X C -0.17219(9) -0.00434(9) -0.04829(8)
C11A C 0.06049(9) 0.22516(10) 0.00729(9)
C11B C 0.00729(9) 0.06049(10) 0.22516(9)
C11Y C -0.06049(9) -0.22516(10) -0.00729(9)
C11Z C -0.00729(9) -0.06049(10) -0.22516(9)
C11X C -0.22516(9) -0.00729(10) -0.06049(9)
H11A H 0.06200 0.24190 0.04010
H11B H 0.04010 0.06200 0.24190
H11Y H -0.06200 -0.24190 -0.04010
H11Z H -0.04010 -0.06200 -0.24190
H11X H -0.24190 -0.04010 -0.06200
C12A C 0.07028(10) 0.25318(10) -0.03772(10)
C12B C -0.03772(10) 0.07028(10) 0.25318(10)
C12Y C -0.07028(10) -0.25318(10) 0.03772(10)
C12Z C 0.03772(10) -0.07028(10) -0.25318(10)
C12X C -0.25318(10) 0.03772(10) -0.07028(10)
H12A H 0.07860 0.28900 -0.03550
H12B H -0.03550 0.07860 0.28900
H12Y H -0.07860 -0.28900 0.03550
H12Z H 0.03550 -0.07860 -0.28900
H12X H -0.28900 0.03550 -0.07860
C13A C 0.06798(10) 0.22927(10) -0.08579(10)
C13B C -0.08579(10) 0.06798(10) 0.22927(10)
C13Y C -0.06798(10) -0.22927(10) 0.08579(10)
C13Z C 0.08579(10) -0.06798(10) -0.22927(10)
C13X C -0.22927(10) 0.08579(10) -0.06798(10)
H13A H 0.07460 0.24860 -0.11650
H13B H -0.11650 0.07460 0.24860
H13Y H -0.07460 -0.24860 0.11650
H13Z H 0.11650 -0.07460 -0.24860
H13X H -0.24860 0.11650 -0.07460
C14A C 0.0560(1) 0.17699(9) -0.08872(9)
C14B C -0.08872(10) 0.05600(9) 0.17699(9)
C14Y C -0.0560(1) -0.17699(9) 0.08872(9)
C14Z C 0.08872(10) -0.05600(9) -0.17699(9)
C14X C -0.17699(10) 0.08872(9) -0.05600(9)
H14A H 0.05510 0.16030 -0.12160
H14B H -0.12160 0.05510 0.16030
H14Y H -0.05510 -0.16030 0.12160
H14Z H 0.12160 -0.05510 -0.16030
H14X H -0.16030 0.12160 -0.05510
C15A C 0.04536(6) 0.14877(7) -0.04444(6)
C15B C -0.04444(6) 0.04536(7) 0.14877(6)
C15Y C -0.04536(6) -0.14877(7) 0.04444(6)
C15Z C 0.04444(6) -0.04536(7) -0.14877(6)
C15X C -0.14877(6) 0.04444(7) -0.04536(6)
H15A H 0.03600 0.11320 -0.04720
H15B H -0.04720 0.03600 0.11320
H15Y H -0.03600 -0.11320 0.04720
H15Z H 0.04720 -0.03600 -0.11320
H15X H -0.11320 0.04720 -0.03600
O1Q O 0.23370(6) -0.07045(7) -0.24739(6)
C16Q C 0.22900(6) -0.10845(7) -0.20849(6)
H16Q H 0.25520 -0.10240 -0.18160
H17Q H 0.23420 -0.14290 -0.22370
H18Q H 0.19430 -0.10660 -0.19300
C17Q C 0.23170(6) -0.01875(7) -0.22739(6)
H19Q H 0.26220 -0.01220 -0.20490
H20Q H 0.19990 -0.01400 -0.20640
#END

data_CSD_CIF_DUPXOD
_audit_creation_date 2015-07-22
_audit_creation_method CSD-ConQuest-V1
_database_code_CSD DUPXOD
_database_code_depnum_ccdc_archive 'CCDC 1022084'
_chemical_formula_sum 'C31 H21'
_chemical_formula_moiety
;
C31 H21
;
_journal_coden_Cambridge 4
_journal_volume 136
_journal_year 2014
_journal_page_first 18009
_journal_name_full 'J.Am.Chem.Soc. '
loop_
_publ_author_name
"Zhongyu Mou"
"K.Uchida"
"T.Kubo"
"M.Kertesz"
_chemical_name_systematic
;
2,5,8-tris(phenyl)phenalenyl radical
;
_cell_volume   8246.081
_exptl_crystal_colour 'black'
_exptl_crystal_density_diffrn 1.268
_exptl_special_details
;
Air-sensitive, Oxygen-sensitive

;
_exptl_crystal_description 'block'
_exptl_crystal_preparation 'toluene/n-hexane'
_diffrn_ambient_temperature 100
#These two values have been output from a single CSD field.
_refine_ls_R_factor_gt 0.041
_refine_ls_wR_factor_gt 0.041
_symmetry_cell_setting cubic
_symmetry_space_group_name_H-M 'I a -3'
_symmetry_Int_Tables_number 206
loop_
_symmetry_equiv_pos_site_id
_symmetry_equiv_pos_as_xyz
1 x,y,z
2 x,-y,1/2-z
3 1/2-x,y,-z
4 -x,1/2-y,z
5 z,x,y
6 z,-x,1/2-y
7 1/2-z,x,-y
8 -z,1/2-x,y
9 y,z,x
10 y,-z,1/2-x
11 1/2-y,z,-x
12 -y,1/2-z,x
13 1/2+x,1/2+y,1/2+z
14 1/2+x,1/2-y,-z
15 -x,1/2+y,1/2-z
16 1/2-x,-y,1/2+z
17 1/2+z,1/2+x,1/2+y
18 1/2+z,1/2-x,-y
19 -z,1/2+x,1/2-y
20 1/2-z,-x,1/2+y
21 1/2+y,1/2+z,1/2+x
22 1/2+y,1/2-z,-x
23 -y,1/2+z,1/2-x
24 1/2-y,-z,1/2+x
25 -x,-y,-z
26 -x,y,-1/2+z
27 -1/2+x,-y,z
28 x,-1/2+y,-z
29 -z,-x,-y
30 -z,x,-1/2+y
31 -1/2+z,-x,y
32 z,-1/2+x,-y
33 -y,-z,-x
34 -y,z,-1/2+x
35 -1/2+y,-z,x
36 y,-1/2+z,-x
37 -1/2-x,-1/2-y,-1/2-z
38 -1/2-x,-1/2+y,z
39 x,-1/2-y,-1/2+z
40 -1/2+x,y,-1/2-z
41 -1/2-z,-1/2-x,-1/2-y
42 -1/2-z,-1/2+x,y
43 z,-1/2-x,-1/2+y
44 -1/2+z,x,-1/2-y
45 -1/2-y,-1/2-z,-1/2-x
46 -1/2-y,-1/2+z,x
47 y,-1/2-z,-1/2+x
48 -1/2+y,z,-1/2-x
_cell_length_a 20.203(3)
_cell_length_b 20.203(3)
_cell_length_c 20.203(3)
_cell_angle_alpha 90
_cell_angle_beta 90
_cell_angle_gamma 90
_cell_formula_units_Z 16
loop_
_atom_type_symbol
_atom_type_radius_bond
C 0.68
H 0.23
loop_
_atom_site_label
_atom_site_type_symbol
_atom_site_fract_x
_atom_site_fract_y
_atom_site_fract_z
C1 C 0.04445(5) 0.04445(5) 0.04445(5)
C2 C -0.00070(6) 0.03521(5) 0.09754(5)
C3 C -0.05454(6) 0.07927(6) 0.10436(5)
C4 C -0.06357(6) 0.13224(5) 0.06095(6)
C5 C -0.01932(5) 0.14032(5) 0.00853(6)
C6 C -0.12037(6) 0.17805(6) 0.06919(5)
C7 C -0.18069(6) 0.15574(6) 0.09488(6)
C8 C -0.23282(6) 0.19928(7) 0.10511(7)
C9 C -0.22626(7) 0.26575(7) 0.08925(7)
C10 C -0.16728(7) 0.28837(7) 0.06283(7)
C11 C -0.11490(6) 0.24501(6) 0.05286(6)
H1 H -0.0853(7) 0.0731(6) 0.1430(7)
H2 H -0.0265(6) 0.1776(7) -0.0239(6)
H3 H -0.1875(7) 0.1072(7) 0.1050(7)
H4 H -0.2747(8) 0.1817(8) 0.1244(8)
H5 H -0.2645(9) 0.2973(9) 0.0967(8)
H6 H -0.1625(8) 0.3367(8) 0.0518(8)
H7 H -0.0718(8) 0.2623(8) 0.0351(7)
C2D C 0.09754(6) -0.00070(5) 0.03521(5)
C3D C 0.10436(6) -0.05454(6) 0.07927(5)
C4D C 0.06095(6) -0.06357(5) 0.13224(6)
C5D C 0.00853(5) -0.01932(5) 0.14032(6)
C6D C 0.06919(6) -0.12037(6) 0.17805(5)
C7D C 0.09488(6) -0.18069(6) 0.15574(6)
C8D C 0.10511(6) -0.23282(7) 0.19928(7)
C9D C 0.08925(7) -0.22626(7) 0.26575(7)
C10D C 0.06283(7) -0.16728(7) 0.28837(7)
C11D C 0.05286(6) -0.11490(6) 0.24501(6)
H1D H 0.1430(7) -0.0853(6) 0.0731(7)
H2D H -0.0239(6) -0.0265(7) 0.1776(6)
H3D H 0.1050(7) -0.1875(7) 0.1072(7)
H4D H 0.1244(8) -0.2747(8) 0.1817(8)
H5D H 0.0967(9) -0.2645(9) 0.2973(8)
H6D H 0.0518(8) -0.1625(8) 0.3367(8)
H7D H 0.0351(8) -0.0718(8) 0.2623(7)
C2H C 0.03521(6) 0.09754(5) -0.00070(5)
C3H C 0.07927(6) 0.10436(6) -0.05454(5)
C4H C 0.13224(6) 0.06095(5) -0.06357(6)
C5H C 0.14032(5) 0.00853(5) -0.01932(6)
C6H C 0.17805(6) 0.06919(6) -0.12037(5)
C7H C 0.15574(6) 0.09488(6) -0.18069(6)
C8H C 0.19928(6) 0.10511(7) -0.23282(7)
C9H C 0.26575(7) 0.08925(7) -0.22626(7)
C10H C 0.28837(7) 0.06283(7) -0.16728(7)
C11H C 0.24501(6) 0.05286(6) -0.11490(6)
H1H H 0.0731(7) 0.1430(6) -0.0853(7)
H2H H 0.1776(6) -0.0239(7) -0.0265(6)
H3H H 0.1072(7) 0.1050(7) -0.1875(7)
H4H H 0.1817(8) 0.1244(8) -0.2747(8)
H5H H 0.2973(9) 0.0967(9) -0.2645(8)
H6H H 0.3367(8) 0.0518(8) -0.1625(8)
H7H H 0.2623(8) 0.0351(8) -0.0718(7)
#END

data_CSD_CIF_NAHACE03
_audit_creation_date 2003-12-16
_audit_creation_method CSD-ConQuest-V1
_database_code_CSD NAHACE03
_chemical_formula_sum 'C4 H7 Na1 O4'
_chemical_formula_moiety
;
C4 H7 O4 1-,Na1 1+
;
_journal_coden_Cambridge 296
_journal_volume 19
_journal_year 2002
_journal_page_first 390
_journal_name_full 'Jingxi Huagong '
loop_
_publ_author_name
"Cheng-Ji Shan"
"Jing Song"
"Ze-Xin Zhang"
"Ning-Hai Hu"
"Heng-Qing Jia"
"Yan Xing"
_chemical_name_systematic
;
Sodium hydrogen diacetate
;
_cell_volume   4021.196
_exptl_crystal_density_diffrn 1.408
_exptl_special_details
;
preservative and mould inhibitor
x(H2C) should be negative

;
_diffrn_ambient_temperature ?
_diffrn_special_details
;
The study was carried out at room temperature,in the range 283-303K

;
#These two values have been output from a single CSD field.
_refine_ls_R_factor_gt 0.038
_refine_ls_wR_factor_gt 0.038
_symmetry_cell_setting cubic
_symmetry_space_group_name_H-M 'I a -3'
_symmetry_Int_Tables_number 206
loop_
_symmetry_equiv_pos_site_id
_symmetry_equiv_pos_as_xyz
1 x,y,z
2 1/2-x,-y,1/2+z
3 1/2+x,1/2-y,-z
4 z,x,y
5 -x,1/2+y,1/2-z
6 1/2-z,-x,1/2+y
7 1/2+z,1/2-x,-y
8 -z,1/2+x,1/2-y
9 y,z,x
10 1/2+y,1/2-z,-x
11 -y,1/2+z,1/2-x
12 1/2-y,-z,1/2+x
13 1/2+x,1/2+y,1/2+z
14 -x,1/2-y,z
15 x,-y,1/2-z
16 1/2+z,1/2+x,1/2+y
17 1/2-x,y,-z
18 -z,1/2-x,y
19 z,-x,1/2-y
20 1/2-z,x,-y
21 1/2+y,1/2+z,1/2+x
22 y,-z,1/2-x
23 1/2-y,z,-x
24 -y,1/2-z,x
25 -x,-y,-z
26 -1/2+x,y,-1/2-z
27 -1/2-x,-1/2+y,z
28 -z,-x,-y
29 x,-1/2-y,-1/2+z
30 -1/2+z,x,-1/2-y
31 -1/2-z,-1/2+x,y
32 z,-1/2-x,-1/2+y
33 -y,-z,-x
34 -1/2-y,-1/2+z,x
35 y,-1/2-z,-1/2+x
36 -1/2+y,z,-1/2-x
37 -1/2-x,-1/2-y,-1/2-z
38 x,-1/2+y,-z
39 -x,y,-1/2+z
40 -1/2-z,-1/2-x,-1/2-y
41 -1/2+x,-y,z
42 z,-1/2+x,-y
43 -z,x,-1/2+y
44 -1/2+z,-x,y
45 -1/2-y,-1/2-z,-1/2-x
46 -y,z,-1/2+x
47 -1/2+y,-z,x
48 y,-1/2+z,-x
_cell_length_a 15.902(2)
_cell_length_b 15.902(2)
_cell_length_c 15.902(2)
_cell_angle_alpha 90
_cell_angle_beta 90
_cell_angle_gamma 90
_cell_formula_units_Z 24
loop_
_atom_type_symbol
_atom_type_radius_bond
C 0.68
H 0.23
Na 0.97
O 0.68
loop_
_atom_site_label
_atom_site_type_symbol
_atom_site_fract_x
_atom_site_fract_y
_atom_site_fract_z
Na1 Na 0.1196(1) 0.1196(1) 0.1196(1)
Na2 Na 0.00000 0.00000 0.00000
O1 O -0.0321(1) 0.1090(1) 0.1002(1)
O2 O -0.0758(1) 0.2351(1) 0.1403(1)
C1 C -0.0882(1) 0.1606(1) 0.1107(1)
C2 C -0.1778(1) 0.1393(1) 0.0902(1)
H1 H -0.2036(2) 0.1859(3) 0.0618(6)
H2 H -0.2079(2) 0.1277(7) 0.1413(2)
H3 H -0.1793(1) 0.0907(5) 0.0545(6)
H4 H 0.00000 0.25000 0.1458(31)
O2M O 0.0758(1) 0.2649(1) 0.1403(1)
C1M C 0.0882(1) 0.3394(1) 0.1107(1)
O1M O 0.0321(1) 0.3910(1) 0.1002(1)
C2M C 0.1778(1) 0.3607(1) 0.0902(1)
H1M H 0.2036(2) 0.3141(3) 0.0618(6)
H2M H 0.2079(2) 0.3723(7) 0.1413(2)
H3M H 0.1793(1) 0.4093(5) 0.0545(6)
#END

data_CSD_CIF_QEZCUU
_audit_creation_date 2007-07-11
_audit_creation_method CSD-ConQuest-V1
_database_code_CSD QEZCUU
_database_code_depnum_ccdc_archive 'CCDC 633462'
_chemical_formula_sum 'C42 H60 Ce1 N21 O6'
_chemical_formula_moiety
;
3(C8 H20 N1 1+),C18 Ce1 N18 O6 3-
;
_journal_coden_Cambridge 222
_journal_year 2007
_journal_page_first 1371
_journal_name_full 'Dalton Trans. '
loop_
_publ_author_name
"A.R.S.Chesman"
"D.R.Turner"
"E.I.Izgorodina"
"S.R.Batten"
"G.B.Deacon"
_chemical_name_systematic
;
tris(tetraethylammonium) hexakis(dicyano(nitroso)methanido-N,O)-cerium
;
_cell_volume  11443.864
_exptl_crystal_colour 'purple'
_exptl_crystal_density_diffrn 1.271
_exptl_special_details
;
Isostructural and isomorphous with the Nd, La and Gd analogues

;
_exptl_crystal_description 'plate'
_diffrn_ambient_temperature 123
#These two values have been output from a single CSD field.
_refine_ls_R_factor_gt 0.0303
_refine_ls_wR_factor_gt 0.0303
_symmetry_cell_setting cubic
_symmetry_space_group_name_H-M 'I a -3'
_symmetry_Int_Tables_number 206
loop_
_symmetry_equiv_pos_site_id
_symmetry_equiv_pos_as_xyz
1 x,y,z
2 z,x,y
3 y,z,x
4 1/2+x,1/2+y,1/2+z
5 1/2+z,1/2+x,1/2+y
6 1/2+y,1/2+z,1/2+x
7 -y,1/2-z,x
8 z,-x,1/2-y
9 1/2-y,z,-x
10 -z,1/2-x,y
11 1/2-z,x,-y
12 y,-z,1/2-x
13 -x,1/2-y,z
14 x,-y,1/2-z
15 1/2-x,y,-z
16 1/2-y,-z,1/2+x
17 1/2+z,1/2-x,-y
18 -y,1/2+z,1/2-x
19 1/2-z,-x,1/2+y
20 -z,1/2+x,1/2-y
21 1/2+y,1/2-z,-x
22 1/2-x,-y,1/2+z
23 1/2+x,1/2-y,-z
24 -x,1/2+y,1/2-z
25 -x,-y,-z
26 -z,-x,-y
27 -y,-z,-x
28 -1/2-x,-1/2-y,-1/2-z
29 -1/2-z,-1/2-x,-1/2-y
30 -1/2-y,-1/2-z,-1/2-x
31 y,-1/2+z,-x
32 -z,x,-1/2+y
33 -1/2+y,-z,x
34 z,-1/2+x,-y
35 -1/2+z,-x,y
36 -y,z,-1/2+x
37 x,-1/2+y,-z
38 -x,y,-1/2+z
39 -1/2+x,-y,z
40 -1/2+y,z,-1/2-x
41 -1/2-z,-1/2+x,y
42 y,-1/2-z,-1/2+x
43 -1/2+z,x,-1/2-y
44 z,-1/2-x,-1/2+y
45 -1/2-y,-1/2+z,x
46 -1/2+x,y,-1/2-z
47 -1/2-x,-1/2+y,z
48 x,-1/2-y,-1/2+z
_cell_length_a 22.535(3)
_cell_length_b 22.535(3)
_cell_length_c 22.535(3)
_cell_angle_alpha 90
_cell_angle_beta 90
_cell_angle_gamma 90
_cell_formula_units_Z 8
loop_
_atom_type_symbol
_atom_type_radius_bond
C 0.68
H 0.23
Ce 1.83
N 0.68
O 0.68
loop_
_atom_site_label
_atom_site_type_symbol
_atom_site_fract_x
_atom_site_fract_y
_atom_site_fract_z
Ce1 Ce 0.50000 0.50000 0.50000
O1 O 0.41879(8) 0.55642(8) 0.44615(8)
N1 N 0.43403(9) 0.51606(10) 0.40797(10)
C1 C 0.40539(12) 0.51323(11) 0.35750(12)
N2 N 0.43569(12) 0.43012(12) 0.28552(11)
C2 C 0.35851(12) 0.55393(13) 0.34402(11)
C3 C 0.42173(13) 0.46734(14) 0.31765(13)
N3 N 0.65523(14) 0.50000 0.25000
C4 C 0.61695(13) 0.49023(12) 0.19548(12)
H1 H 0.59410 0.52690 0.18770
H2 H 0.64330 0.48350 0.16100
N4 N 0.32116(11) 0.58736(12) 0.33573(10)
C5 C 0.57402(14) 0.43891(14) 0.19978(13)
H3 H 0.59610 0.40210 0.20700
H4 H 0.55180 0.43550 0.16260
H5 H 0.54630 0.44590 0.23260
C6 C 0.69313(13) 0.44598(14) 0.26312(12)
H6 H 0.71780 0.45460 0.29840
H7 H 0.66660 0.41250 0.27350
C7 C 0.73369(14) 0.42629(16) 0.21299(15)
H8 H 0.70970 0.41400 0.17890
H9 H 0.75810 0.39280 0.22630
H10 H 0.75950 0.45930 0.20140
O1A O 0.44615(8) 0.41879(8) 0.55642(8)
O1B O 0.55642(8) 0.44615(8) 0.41879(8)
O1X O 0.58121(8) 0.44358(8) 0.55385(8)
O1Y O 0.55385(8) 0.58121(8) 0.44358(8)
O1Z O 0.44358(8) 0.55385(8) 0.58121(8)
N1A N 0.40797(9) 0.43403(10) 0.51606(10)
N1B N 0.51606(9) 0.40797(10) 0.43403(10)
N1X N 0.56597(9) 0.48394(10) 0.59203(10)
N1Y N 0.59203(9) 0.56597(10) 0.48394(10)
N1Z N 0.48394(9) 0.59203(10) 0.56597(10)
C1Z C 0.48677(12) 0.64250(11) 0.59461(12)
C1Y C 0.64250(12) 0.59461(11) 0.48677(12)
C1X C 0.59461(12) 0.48677(11) 0.64250(12)
C1B C 0.51323(12) 0.35750(11) 0.40539(12)
C1A C 0.35750(12) 0.40539(11) 0.51323(12)
N2Z N 0.56988(12) 0.71448(12) 0.56431(11)
N2Y N 0.71448(12) 0.56431(12) 0.56988(11)
N2X N 0.56431(12) 0.56988(12) 0.71448(11)
N2B N 0.43012(12) 0.28552(12) 0.43569(11)
N2A N 0.28552(12) 0.43569(12) 0.43012(11)
C2Z C 0.44607(12) 0.65598(13) 0.64149(11)
C2Y C 0.65598(12) 0.64149(13) 0.44607(11)
C2X C 0.64149(12) 0.44607(13) 0.65598(11)
C2B C 0.55393(12) 0.34402(13) 0.35851(11)
C2A C 0.34402(12) 0.35851(13) 0.55393(11)
C3Z C 0.53266(13) 0.68235(14) 0.57827(13)
C3Y C 0.68235(13) 0.57827(14) 0.53266(13)
C3X C 0.57827(13) 0.53266(14) 0.68235(13)
C3B C 0.46734(13) 0.31765(14) 0.42173(13)
C3A C 0.31765(13) 0.42173(14) 0.46734(13)
C4M C 0.61695(13) 0.50977(12) 0.30452(12)
H1M H 0.59410 0.47310 0.31230
H2M H 0.64330 0.51650 0.33900
N4Z N 0.41264(11) 0.66427(12) 0.67884(10)
N4Y N 0.66427(11) 0.67884(12) 0.41264(10)
N4X N 0.67884(11) 0.41264(12) 0.66427(10)
N4B N 0.58736(11) 0.33573(12) 0.32116(10)
N4A N 0.33573(11) 0.32116(12) 0.58736(10)
C5M C 0.57402(14) 0.56109(14) 0.30022(13)
H3M H 0.59610 0.59790 0.29300
H4M H 0.55180 0.56450 0.33740
H5M H 0.54630 0.55410 0.26740
C6M C 0.69313(13) 0.55402(14) 0.23688(12)
H6M H 0.71780 0.54540 0.20160
H7M H 0.66660 0.58750 0.22650
C7M C 0.73369(14) 0.57371(16) 0.28701(15)
H8M H 0.70970 0.58600 0.32110
H9M H 0.75810 0.60720 0.27370
H10M H 0.75950 0.54070 0.29860
#END

data_CSD_CIF_QEZDAB
_audit_creation_date 2007-07-11
_audit_creation_method CSD-ConQuest-V1
_database_code_CSD QEZDAB
_database_code_depnum_ccdc_archive 'CCDC 633463'
_chemical_formula_sum 'C42 H60 Gd1 N21 O6'
_chemical_formula_moiety
;
3(C8 H20 N1 1+),C18 Gd1 N18 O6 3-
;
_journal_coden_Cambridge 222
_journal_year 2007
_journal_page_first 1371
_journal_name_full 'Dalton Trans. '
loop_
_publ_author_name
"A.R.S.Chesman"
"D.R.Turner"
"E.I.Izgorodina"
"S.R.Batten"
"G.B.Deacon"
_chemical_name_systematic
;
tris(tetraethylammonium) hexakis(dicyano(nitroso)methanido)-gadolinium(iii)
;
_chemical_name_common
;
t
;
_cell_volume  11228.439
_exptl_crystal_colour 'colorless'
_exptl_crystal_density_diffrn 1.316
_exptl_special_details
;
Isostructural and isomorphous with the Nd, La and Ce analogues

;
_exptl_crystal_description 'block'
_diffrn_ambient_temperature 123
#These two values have been output from a single CSD field.
_refine_ls_R_factor_gt 0.0261
_refine_ls_wR_factor_gt 0.0261
_symmetry_cell_setting cubic
_symmetry_space_group_name_H-M 'I a -3'
_symmetry_Int_Tables_number 206
loop_
_symmetry_equiv_pos_site_id
_symmetry_equiv_pos_as_xyz
1 x,y,z
2 z,x,y
3 y,z,x
4 1/2+x,1/2+y,1/2+z
5 1/2+z,1/2+x,1/2+y
6 1/2+y,1/2+z,1/2+x
7 -y,1/2-z,x
8 z,-x,1/2-y
9 1/2-y,z,-x
10 -z,1/2-x,y
11 1/2-z,x,-y
12 y,-z,1/2-x
13 -x,1/2-y,z
14 x,-y,1/2-z
15 1/2-x,y,-z
16 1/2-y,-z,1/2+x
17 1/2+z,1/2-x,-y
18 -y,1/2+z,1/2-x
19 1/2-z,-x,1/2+y
20 -z,1/2+x,1/2-y
21 1/2+y,1/2-z,-x
22 1/2-x,-y,1/2+z
23 1/2+x,1/2-y,-z
24 -x,1/2+y,1/2-z
25 -x,-y,-z
26 -z,-x,-y
27 -y,-z,-x
28 -1/2-x,-1/2-y,-1/2-z
29 -1/2-z,-1/2-x,-1/2-y
30 -1/2-y,-1/2-z,-1/2-x
31 y,-1/2+z,-x
32 -z,x,-1/2+y
33 -1/2+y,-z,x
34 z,-1/2+x,-y
35 -1/2+z,-x,y
36 -y,z,-1/2+x
37 x,-1/2+y,-z
38 -x,y,-1/2+z
39 -1/2+x,-y,z
40 -1/2+y,z,-1/2-x
41 -1/2-z,-1/2+x,y
42 y,-1/2-z,-1/2+x
43 -1/2+z,x,-1/2-y
44 z,-1/2-x,-1/2+y
45 -1/2-y,-1/2+z,x
46 -1/2+x,y,-1/2-z
47 -1/2-x,-1/2+y,z
48 x,-1/2-y,-1/2+z
_cell_length_a 22.3927(4)
_cell_length_b 22.3927(4)
_cell_length_c 22.3927(4)
_cell_angle_alpha 90
_cell_angle_beta 90
_cell_angle_gamma 90
_cell_formula_units_Z 8
loop_
_atom_type_symbol
_atom_type_radius_bond
C 0.68
H 0.23
Gd 1.79
N 0.68
O 0.68
loop_
_atom_site_label
_atom_site_type_symbol
_atom_site_fract_x
_atom_site_fract_y
_atom_site_fract_z
Gd1 Gd 0.50000 0.50000 0.50000
O1 O 0.42024(7) 0.55604(7) 0.44921(7)
N1 N 0.65884(13) 0.50000 0.25000
N2 N 0.43596(8) 0.51610(8) 0.41054(9)
N3 N 0.32418(10) 0.58966(11) 0.33708(10)
N4 N 0.43849(12) 0.43114(11) 0.28649(11)
C1 C 0.36103(11) 0.55589(12) 0.34567(10)
C2 C 0.40786(10) 0.51433(10) 0.35932(10)
C3 C 0.42473(12) 0.46840(12) 0.31882(11)
C4 C 0.62065(11) 0.48973(12) 0.19534(11)
H1 H 0.59770 0.52660 0.18710
H2 H 0.64730 0.48260 0.16080
C5 C 0.57750(13) 0.43830(13) 0.19996(12)
H3 H 0.54980 0.44550 0.23300
H4 H 0.59970 0.40130 0.20730
H5 H 0.55500 0.43470 0.16260
C6 C 0.69725(12) 0.44606(13) 0.26347(11)
H6 H 0.72190 0.45510 0.29900
H7 H 0.67070 0.41230 0.27400
C7 C 0.73835(14) 0.42610(16) 0.21355(14)
H8 H 0.76430 0.45930 0.20190
H9 H 0.71440 0.41350 0.17910
H10 H 0.76290 0.39260 0.22740
O1A O 0.44921(7) 0.42024(7) 0.55604(7)
O1B O 0.55604(7) 0.44921(7) 0.42024(7)
O1X O 0.57976(7) 0.44396(7) 0.55079(7)
O1Y O 0.55079(7) 0.57976(7) 0.44396(7)
O1Z O 0.44396(7) 0.55079(7) 0.57976(7)
N2A N 0.41054(8) 0.43596(8) 0.51610(9)
N2B N 0.51610(8) 0.41054(8) 0.43596(9)
N2X N 0.56404(8) 0.48390(8) 0.58946(9)
N2Y N 0.58946(8) 0.56404(8) 0.48390(9)
N2Z N 0.48390(8) 0.58946(8) 0.56404(9)
N3Z N 0.41034(10) 0.66292(11) 0.67582(10)
N3Y N 0.66292(10) 0.67582(11) 0.41034(10)
N3X N 0.67582(10) 0.41034(11) 0.66292(10)
N3B N 0.58966(10) 0.33708(11) 0.32418(10)
N3A N 0.33708(10) 0.32418(11) 0.58966(10)
N4Z N 0.56886(12) 0.71351(11) 0.56151(11)
N4Y N 0.71351(12) 0.56151(11) 0.56886(11)
N4X N 0.56151(12) 0.56886(11) 0.71351(11)
N4B N 0.43114(12) 0.28649(11) 0.43849(11)
N4A N 0.28649(12) 0.43849(11) 0.43114(11)
C1Z C 0.44411(11) 0.65433(12) 0.63897(10)
C1Y C 0.65433(11) 0.63897(12) 0.44411(10)
C1X C 0.63897(11) 0.44411(12) 0.65433(10)
C1B C 0.55589(11) 0.34567(12) 0.36103(10)
C1A C 0.34567(11) 0.36103(12) 0.55589(10)
C2Z C 0.48567(10) 0.64068(10) 0.59214(10)
C2Y C 0.64068(10) 0.59214(10) 0.48567(10)
C2X C 0.59214(10) 0.48567(10) 0.64068(10)
C2B C 0.51433(10) 0.35932(10) 0.40786(10)
C2A C 0.35932(10) 0.40786(10) 0.51433(10)
C3Z C 0.53160(12) 0.68118(12) 0.57527(11)
C3Y C 0.68118(12) 0.57527(12) 0.53160(11)
C3X C 0.57527(12) 0.53160(12) 0.68118(11)
C3B C 0.46840(12) 0.31882(12) 0.42473(11)
C3A C 0.31882(12) 0.42473(12) 0.46840(11)
C4M C 0.62065(11) 0.51027(12) 0.30466(11)
H1M H 0.59770 0.47340 0.31290
H2M H 0.64730 0.51740 0.33920
C5M C 0.57750(13) 0.56170(13) 0.30004(12)
H3M H 0.54980 0.55450 0.26700
H4M H 0.59970 0.59870 0.29270
H5M H 0.55500 0.56530 0.33740
C6M C 0.69725(12) 0.55394(13) 0.23653(11)
H6M H 0.72190 0.54490 0.20100
H7M H 0.67070 0.58770 0.22600
C7M C 0.73835(14) 0.57390(16) 0.28645(14)
H8M H 0.76430 0.54070 0.29810
H9M H 0.71440 0.58650 0.32090
H10M H 0.76290 0.60740 0.27260
#END

data_CSD_CIF_QEZDEF
_audit_creation_date 2007-07-11
_audit_creation_method CSD-ConQuest-V1
_database_code_CSD QEZDEF
_database_code_depnum_ccdc_archive 'CCDC 633464'
_chemical_formula_sum 'C42 H60 La1 N21 O6'
_chemical_formula_moiety
;
3(C8 H20 N1 1+),C18 La1 N18 O6 3-
;
_journal_coden_Cambridge 222
_journal_year 2007
_journal_page_first 1371
_journal_name_full 'Dalton Trans. '
loop_
_publ_author_name
"A.R.S.Chesman"
"D.R.Turner"
"E.I.Izgorodina"
"S.R.Batten"
"G.B.Deacon"
_chemical_name_systematic
;
tris(tetraethylammonium) (hexakis(dicyano(nitroso)methanido)-lanthanum(iii))
;
_cell_volume  11517.912
_exptl_crystal_colour 'colorless'
_exptl_crystal_density_diffrn 1.262
_exptl_special_details
;
Isostructural and isomorphous with the Nd, Ce and Gd analogues

;
_exptl_crystal_description 'block'
_diffrn_ambient_temperature 123
#These two values have been output from a single CSD field.
_refine_ls_R_factor_gt 0.0374
_refine_ls_wR_factor_gt 0.0374
_symmetry_cell_setting cubic
_symmetry_space_group_name_H-M 'I a -3'
_symmetry_Int_Tables_number 206
loop_
_symmetry_equiv_pos_site_id
_symmetry_equiv_pos_as_xyz
1 x,y,z
2 z,x,y
3 y,z,x
4 1/2+x,1/2+y,1/2+z
5 1/2+z,1/2+x,1/2+y
6 1/2+y,1/2+z,1/2+x
7 -y,1/2-z,x
8 z,-x,1/2-y
9 1/2-y,z,-x
10 -z,1/2-x,y
11 1/2-z,x,-y
12 y,-z,1/2-x
13 -x,1/2-y,z
14 x,-y,1/2-z
15 1/2-x,y,-z
16 1/2-y,-z,1/2+x
17 1/2+z,1/2-x,-y
18 -y,1/2+z,1/2-x
19 1/2-z,-x,1/2+y
20 -z,1/2+x,1/2-y
21 1/2+y,1/2-z,-x
22 1/2-x,-y,1/2+z
23 1/2+x,1/2-y,-z
24 -x,1/2+y,1/2-z
25 -x,-y,-z
26 -z,-x,-y
27 -y,-z,-x
28 -1/2-x,-1/2-y,-1/2-z
29 -1/2-z,-1/2-x,-1/2-y
30 -1/2-y,-1/2-z,-1/2-x
31 y,-1/2+z,-x
32 -z,x,-1/2+y
33 -1/2+y,-z,x
34 z,-1/2+x,-y
35 -1/2+z,-x,y
36 -y,z,-1/2+x
37 x,-1/2+y,-z
38 -x,y,-1/2+z
39 -1/2+x,-y,z
40 -1/2+y,z,-1/2-x
41 -1/2-z,-1/2+x,y
42 y,-1/2-z,-1/2+x
43 -1/2+z,x,-1/2-y
44 z,-1/2-x,-1/2+y
45 -1/2-y,-1/2+z,x
46 -1/2+x,y,-1/2-z
47 -1/2-x,-1/2+y,z
48 x,-1/2-y,-1/2+z
_cell_length_a 22.5835(1)
_cell_length_b 22.5835(1)
_cell_length_c 22.5835(1)
_cell_angle_alpha 90
_cell_angle_beta 90
_cell_angle_gamma 90
_cell_formula_units_Z 8
loop_
_atom_type_symbol
_atom_type_radius_bond
C 0.68
H 0.23
La 1.87
N 0.68
O 0.68
loop_
_atom_site_label
_atom_site_type_symbol
_atom_site_fract_x
_atom_site_fract_y
_atom_site_fract_z
La1 La 0.50000 0.50000 0.50000
O1 O 0.41805(9) 0.55650(8) 0.44541(8)
N1 N 0.65488(15) 0.50000 0.25000
N2 N 0.43357(9) 0.51612(9) 0.40771(9)
N3 N 0.32065(12) 0.58648(13) 0.33482(12)
N4 N 0.43551(14) 0.43033(13) 0.28578(12)
C1 C 0.35771(12) 0.55350(13) 0.34376(12)
C2 C 0.40483(12) 0.51326(11) 0.35735(12)
C3 C 0.42163(13) 0.46743(13) 0.31751(13)
C4 C 0.61683(14) 0.49146(14) 0.19547(12)
H1 H 0.59440 0.52840 0.18820
H2 H 0.64310 0.48500 0.16100
C5 C 0.57346(17) 0.44043(17) 0.19897(15)
H3 H 0.54590 0.44710 0.23190
H4 H 0.59520 0.40340 0.20550
H5 H 0.55120 0.43780 0.16180
C6 C 0.69259(15) 0.44585(16) 0.26188(13)
H6 H 0.66610 0.41190 0.27020
H7 H 0.71650 0.45310 0.29790
C7 C 0.73403(19) 0.4288(2) 0.21178(18)
H8 H 0.75970 0.46250 0.20210
H9 H 0.71070 0.41790 0.17680
H10 H 0.75840 0.39510 0.22400
O1A O 0.44541(9) 0.41805(8) 0.55650(8)
O1B O 0.55650(9) 0.44541(8) 0.41805(8)
O1X O 0.58195(9) 0.44350(8) 0.55459(8)
O1Y O 0.55459(9) 0.58195(8) 0.44350(8)
O1Z O 0.44350(9) 0.55459(8) 0.58195(8)
N2A N 0.40771(9) 0.43357(9) 0.51612(9)
N2B N 0.51612(9) 0.40771(9) 0.43357(9)
N2X N 0.56643(9) 0.48388(9) 0.59229(9)
N2Y N 0.59229(9) 0.56643(9) 0.48388(9)
N2Z N 0.48388(9) 0.59229(9) 0.56643(9)
N3Z N 0.41352(12) 0.66518(13) 0.67935(12)
N3Y N 0.66518(12) 0.67935(13) 0.41352(12)
N3X N 0.67935(12) 0.41352(13) 0.66518(12)
N3B N 0.58648(12) 0.33482(13) 0.32065(12)
N3A N 0.33482(12) 0.32065(13) 0.58648(12)
N4Z N 0.56967(14) 0.71422(13) 0.56449(12)
N4Y N 0.71422(14) 0.56449(13) 0.56967(12)
N4X N 0.56449(14) 0.56967(13) 0.71422(12)
N4B N 0.43033(14) 0.28578(13) 0.43551(12)
N4A N 0.28578(14) 0.43551(13) 0.43033(12)
C1Z C 0.44650(12) 0.65624(13) 0.64229(12)
C1Y C 0.65624(12) 0.64229(13) 0.44650(12)
C1X C 0.64229(12) 0.44650(13) 0.65624(12)
C1B C 0.55350(12) 0.34376(13) 0.35771(12)
C1A C 0.34376(12) 0.35771(13) 0.55350(12)
C2Z C 0.48674(12) 0.64265(11) 0.59517(12)
C2Y C 0.64265(12) 0.59517(11) 0.48674(12)
C2X C 0.59517(12) 0.48674(11) 0.64265(12)
C2B C 0.51326(12) 0.35735(11) 0.40483(12)
C2A C 0.35735(12) 0.40483(11) 0.51326(12)
C3Z C 0.53257(13) 0.68249(13) 0.57837(13)
C3Y C 0.68249(13) 0.57837(13) 0.53257(13)
C3X C 0.57837(13) 0.53257(13) 0.68249(13)
C3B C 0.46743(13) 0.31751(13) 0.42163(13)
C3A C 0.31751(13) 0.42163(13) 0.46743(13)
C4M C 0.61683(14) 0.50854(14) 0.30453(12)
H1M H 0.59440 0.47160 0.31180
H2M H 0.64310 0.51500 0.33900
C5M C 0.57346(17) 0.55957(17) 0.30103(15)
H3M H 0.54590 0.55290 0.26810
H4M H 0.59520 0.59660 0.29450
H5M H 0.55120 0.56220 0.33820
C6M C 0.69259(15) 0.55415(16) 0.23812(13)
H6M H 0.66610 0.58810 0.22980
H7M H 0.71650 0.54690 0.20210
C7M C 0.73403(19) 0.5712(2) 0.28822(18)
H8M H 0.75970 0.53750 0.29790
H9M H 0.71070 0.58210 0.32320
H10M H 0.75840 0.60490 0.27600
#END

data_CSD_CIF_QEZDIJ
_audit_creation_date 2007-07-11
_audit_creation_method CSD-ConQuest-V1
_database_code_CSD QEZDIJ
_database_code_depnum_ccdc_archive 'CCDC 633465'
_chemical_formula_sum 'C42 H60 N21 Nd1 O6'
_chemical_formula_moiety
;
3(C8 H20 N1 1+),C18 N18 Nd1 O6 3-
;
_journal_coden_Cambridge 222
_journal_year 2007
_journal_page_first 1371
_journal_name_full 'Dalton Trans. '
loop_
_publ_author_name
"A.R.S.Chesman"
"D.R.Turner"
"E.I.Izgorodina"
"S.R.Batten"
"G.B.Deacon"
_chemical_name_systematic
;
tris(tetraethylammonium) hexakis(dicyano(nitroso)methanido)-neodymium
;
_cell_volume  11375.141
_exptl_crystal_colour 'pale yellow'
_exptl_crystal_density_diffrn 1.284
_exptl_special_details
;
Isostructural and isomorphous with the Ce, La and Gd analogues

;
_exptl_crystal_description 'block'
_diffrn_ambient_temperature 123
#These two values have been output from a single CSD field.
_refine_ls_R_factor_gt 0.0265
_refine_ls_wR_factor_gt 0.0265
_symmetry_cell_setting cubic
_symmetry_space_group_name_H-M 'I a -3'
_symmetry_Int_Tables_number 206
loop_
_symmetry_equiv_pos_site_id
_symmetry_equiv_pos_as_xyz
1 x,y,z
2 z,x,y
3 y,z,x
4 1/2+x,1/2+y,1/2+z
5 1/2+z,1/2+x,1/2+y
6 1/2+y,1/2+z,1/2+x
7 -y,1/2-z,x
8 z,-x,1/2-y
9 1/2-y,z,-x
10 -z,1/2-x,y
11 1/2-z,x,-y
12 y,-z,1/2-x
13 -x,1/2-y,z
14 x,-y,1/2-z
15 1/2-x,y,-z
16 1/2-y,-z,1/2+x
17 1/2+z,1/2-x,-y
18 -y,1/2+z,1/2-x
19 1/2-z,-x,1/2+y
20 -z,1/2+x,1/2-y
21 1/2+y,1/2-z,-x
22 1/2-x,-y,1/2+z
23 1/2+x,1/2-y,-z
24 -x,1/2+y,1/2-z
25 -x,-y,-z
26 -z,-x,-y
27 -y,-z,-x
28 -1/2-x,-1/2-y,-1/2-z
29 -1/2-z,-1/2-x,-1/2-y
30 -1/2-y,-1/2-z,-1/2-x
31 y,-1/2+z,-x
32 -z,x,-1/2+y
33 -1/2+y,-z,x
34 z,-1/2+x,-y
35 -1/2+z,-x,y
36 -y,z,-1/2+x
37 x,-1/2+y,-z
38 -x,y,-1/2+z
39 -1/2+x,-y,z
40 -1/2+y,z,-1/2-x
41 -1/2-z,-1/2+x,y
42 y,-1/2-z,-1/2+x
43 -1/2+z,x,-1/2-y
44 z,-1/2-x,-1/2+y
45 -1/2-y,-1/2+z,x
46 -1/2+x,y,-1/2-z
47 -1/2-x,-1/2+y,z
48 x,-1/2-y,-1/2+z
_cell_length_a 22.4898(3)
_cell_length_b 22.4898(3)
_cell_length_c 22.4898(3)
_cell_angle_alpha 90
_cell_angle_beta 90
_cell_angle_gamma 90
_cell_formula_units_Z 8
loop_
_atom_type_symbol
_atom_type_radius_bond
C 0.68
H 0.23
N 0.68
Nd 1.81
O 0.68
loop_
_atom_site_label
_atom_site_type_symbol
_atom_site_fract_x
_atom_site_fract_y
_atom_site_fract_z
Nd1 Nd 0.50000 0.50000 0.50000
O1 O 0.41926(6) 0.55647(6) 0.44762(6)
N1 N 0.65688(11) 0.50000 0.25000
N2 N 0.43462(7) 0.51624(7) 0.40924(7)
N3 N 0.32253(9) 0.58856(10) 0.33604(9)
N4 N 0.43695(10) 0.43065(9) 0.28619(9)
C1 C 0.35948(10) 0.55495(10) 0.34468(9)
C2 C 0.40642(9) 0.51406(9) 0.35820(9)
C3 C 0.42333(10) 0.46772(10) 0.31797(10)
C4 C 0.61855(10) 0.48999(10) 0.19543(9)
H1 H 0.59550 0.52670 0.18760
H2 H 0.64490 0.48320 0.16090
C5 C 0.57567(12) 0.43848(12) 0.19996(11)
H3 H 0.54770 0.44570 0.23260
H4 H 0.59780 0.40180 0.20770
H5 H 0.55370 0.43450 0.16250
C6 C 0.69497(11) 0.44600(11) 0.2634(1)
H6 H 0.66840 0.41250 0.27380
H7 H 0.71970 0.45480 0.29880
C7 C 0.73567(13) 0.42620(14) 0.21336(12)
H8 H 0.76180 0.45910 0.20200
H9 H 0.71170 0.41420 0.17900
H10 H 0.75980 0.39240 0.22670
O1A O 0.44762(6) 0.41926(6) 0.55647(6)
O1B O 0.55647(6) 0.44762(6) 0.41926(6)
O1X O 0.58074(6) 0.44353(6) 0.55238(6)
O1Y O 0.55238(6) 0.58074(6) 0.44353(6)
O1Z O 0.44353(6) 0.55238(6) 0.58074(6)
N2A N 0.40924(7) 0.43462(7) 0.51624(7)
N2B N 0.51624(7) 0.40924(7) 0.43462(7)
N2X N 0.56538(7) 0.48376(7) 0.59076(7)
N2Y N 0.59076(7) 0.56538(7) 0.48376(7)
N2Z N 0.48376(7) 0.59076(7) 0.56538(7)
N3Z N 0.41144(9) 0.66396(10) 0.67747(9)
N3Y N 0.66396(9) 0.67747(10) 0.41144(9)
N3X N 0.67747(9) 0.41144(10) 0.66396(9)
N3B N 0.58856(9) 0.33604(10) 0.32253(9)
N3A N 0.33604(9) 0.32253(10) 0.58856(9)
N4Z N 0.56935(10) 0.71381(9) 0.56305(9)
N4Y N 0.71381(10) 0.56305(9) 0.56935(9)
N4X N 0.56305(10) 0.56935(9) 0.71381(9)
N4B N 0.43065(10) 0.28619(9) 0.43695(9)
N4A N 0.28619(10) 0.43695(9) 0.43065(9)
C1Z C 0.44505(10) 0.65532(10) 0.64052(9)
C1Y C 0.65532(10) 0.64052(10) 0.44505(9)
C1X C 0.64052(10) 0.44505(10) 0.65532(9)
C1B C 0.55495(10) 0.34468(10) 0.35948(9)
C1A C 0.34468(10) 0.35948(10) 0.55495(9)
C2Z C 0.48594(9) 0.64180(9) 0.59358(9)
C2Y C 0.64180(9) 0.59358(9) 0.48594(9)
C2X C 0.59358(9) 0.48594(9) 0.64180(9)
C2B C 0.51406(9) 0.35820(9) 0.40642(9)
C2A C 0.35820(9) 0.40642(9) 0.51406(9)
C3Z C 0.53228(10) 0.68203(10) 0.57667(10)
C3Y C 0.68203(10) 0.57667(10) 0.53228(10)
C3X C 0.57667(10) 0.53228(10) 0.68203(10)
C3B C 0.46772(10) 0.31797(10) 0.42333(10)
C3A C 0.31797(10) 0.42333(10) 0.46772(10)
C4M C 0.61855(10) 0.51001(10) 0.30457(9)
H1M H 0.59550 0.47330 0.31240
H2M H 0.64490 0.51680 0.33910
C5M C 0.57567(12) 0.56152(12) 0.30004(11)
H3M H 0.54770 0.55430 0.26740
H4M H 0.59780 0.59820 0.29230
H5M H 0.55370 0.56550 0.33750
C6M C 0.69497(11) 0.55400(11) 0.2366(1)
H6M H 0.66840 0.58750 0.22620
H7M H 0.71970 0.54520 0.20120
C7M C 0.73567(13) 0.57380(14) 0.28664(12)
H8M H 0.76180 0.54090 0.29800
H9M H 0.71170 0.58580 0.32100
H10M H 0.75980 0.60760 0.27330
#END

data_CSD_CIF_ZOWNAA
_audit_creation_date 1996-11-25
_audit_creation_method CSD-ConQuest-V1
_database_code_CSD ZOWNAA
_database_code_depnum_ccdc_archive 'CCDC 1315559'
_chemical_formula_sum 'C21 H18 Co1 N3 O9'
_chemical_formula_moiety
;
C21 H18 Co1 N3 O9
;
_journal_coden_Cambridge 580
_journal_volume 15
_journal_year 1996
_journal_page_first 803
_journal_name_full 'Polyhedron '
loop_
_publ_author_name
"J.Charalambous"
"D.V.Ragvani"
"O.Carugo"
"C.B.Castallani"
"N.Sardone"
_chemical_name_systematic
;
fac-tris(5-Methoxy-1,2-benzoquinone-2-oximato)-cobalt(ii)
;
_chemical_melting_point 559.15
_cell_volume   8988.533
_exptl_crystal_colour 'red'
_exptl_crystal_density_diffrn 1.523
_exptl_special_details
;
Melting point range 559.15-561.15K

;
_diffrn_ambient_temperature ?
_diffrn_special_details
;
The study was carried out at room temperature,in the range 283-303K

;
#These two values have been output from a single CSD field.
_refine_ls_R_factor_gt 0.045
_refine_ls_wR_factor_gt 0.045
_symmetry_cell_setting cubic
_symmetry_space_group_name_H-M 'I a 3'
_symmetry_Int_Tables_number 206
loop_
_symmetry_equiv_pos_site_id
_symmetry_equiv_pos_as_xyz
1 x,y,z
2 1/2-x,-y,1/2+z
3 1/2+x,1/2-y,-z
4 z,x,y
5 -x,1/2+y,1/2-z
6 1/2-z,-x,1/2+y
7 1/2+z,1/2-x,-y
8 -z,1/2+x,1/2-y
9 y,z,x
10 1/2+y,1/2-z,-x
11 -y,1/2+z,1/2-x
12 1/2-y,-z,1/2+x
13 1/2+x,1/2+y,1/2+z
14 -x,1/2-y,z
15 x,-y,1/2-z
16 1/2+z,1/2+x,1/2+y
17 1/2-x,y,-z
18 -z,1/2-x,y
19 z,-x,1/2-y
20 1/2-z,x,-y
21 1/2+y,1/2+z,1/2+x
22 y,-z,1/2-x
23 1/2-y,z,-x
24 -y,1/2-z,x
25 -x,-y,-z
26 -1/2+x,y,-1/2-z
27 -1/2-x,-1/2+y,z
28 -z,-x,-y
29 x,-1/2-y,-1/2+z
30 -1/2+z,x,-1/2-y
31 -1/2-z,-1/2+x,y
32 z,-1/2-x,-1/2+y
33 -y,-z,-x
34 -1/2-y,-1/2+z,x
35 y,-1/2-z,-1/2+x
36 -1/2+y,z,-1/2-x
37 -1/2-x,-1/2-y,-1/2-z
38 x,-1/2+y,-z
39 -x,y,-1/2+z
40 -1/2-z,-1/2-x,-1/2-y
41 -1/2+x,-y,z
42 z,-1/2+x,-y
43 -z,x,-1/2+y
44 -1/2+z,-x,y
45 -1/2-y,-1/2-z,-1/2-x
46 -y,z,-1/2+x
47 -1/2+y,-z,x
48 y,-1/2+z,-x
_cell_length_a 20.792(5)
_cell_length_b 20.792(5)
_cell_length_c 20.792(5)
_cell_angle_alpha 90
_cell_angle_beta 90
_cell_angle_gamma 90
_cell_formula_units_Z 16
loop_
_atom_type_symbol
_atom_type_radius_bond
C 0.68
H 0.23
Co 1.33
N 0.68
O 0.68
loop_
_atom_site_label
_atom_site_type_symbol
_atom_site_fract_x
_atom_site_fract_y
_atom_site_fract_z
Co1 Co 0.1080(1) 0.10800 0.10800
O1 O 0.0976(3) 0.2317(2) 0.1593(2)
O2 O 0.1014(2) 0.1175(2) 0.0165(2)
O3 O 0.0804(3) 0.2903(2) -0.1326(2)
N1 N 0.0980(2) 0.1977(2) 0.1098(2)
C1 C 0.0904(3) 0.2237(3) 0.0509(3)
C2 C 0.0945(3) 0.1774(3) 0.0014(3)
C3 C 0.0928(3) 0.1990(3) -0.0632(3)
C4 C 0.0823(3) 0.2632(3) -0.0735(3)
C5 C 0.0740(3) 0.3088(3) -0.0241(3)
C6 C 0.0789(3) 0.2899(3) 0.0383(3)
C7 C 0.0907(6) 0.2489(5) -0.1873(4)
H1 H 0.08200 0.16790 -0.09760
H2 H 0.07030 0.35930 -0.04100
H3 H 0.08200 0.31830 0.08200
H4 H 0.08200 0.27920 -0.22260
H5 H 0.07030 0.20700 -0.19330
H6 H 0.13500 0.22670 -0.18670
O2C O 0.0165(2) 0.1014(2) 0.1175(2)
C2C C 0.0014(3) 0.0945(3) 0.1774(3)
C1C C 0.0509(3) 0.0904(3) 0.2237(3)
N1C N 0.1098(2) 0.0980(2) 0.1977(2)
O2H O 0.1175(2) 0.0165(2) 0.1014(2)
C2H C 0.1774(3) 0.0014(3) 0.0945(3)
C1H C 0.2237(3) 0.0509(3) 0.0904(3)
N1H N 0.1977(2) 0.1098(2) 0.0980(2)
O1H O 0.2317(3) 0.1593(2) 0.0976(2)
C6H C 0.2899(3) 0.0383(3) 0.0789(3)
C5H C 0.3088(3) -0.0241(3) 0.0740(3)
C4H C 0.2632(3) -0.0735(3) 0.0823(3)
O3H O 0.2903(3) -0.1326(2) 0.0804(2)
C7H C 0.2489(6) -0.1873(5) 0.0907(4)
H4H H 0.27920 -0.22260 0.08200
H5H H 0.20700 -0.19330 0.07030
H6H H 0.22670 -0.18670 0.13500
C3H C 0.1990(3) -0.0632(3) 0.0928(3)
H1H H 0.16790 -0.09760 0.08200
H2H H 0.35930 -0.04100 0.07030
H3H H 0.31830 0.08200 0.08200
O1C O 0.1593(3) 0.0976(2) 0.2317(2)
C6C C 0.0383(3) 0.0789(3) 0.2899(3)
C5C C -0.0241(3) 0.0740(3) 0.3088(3)
C4C C -0.0735(3) 0.0823(3) 0.2632(3)
O3C O -0.1326(3) 0.0804(2) 0.2903(2)
C7C C -0.1873(6) 0.0907(5) 0.2489(4)
H4C H -0.22260 0.08200 0.27920
H5C H -0.19330 0.07030 0.20700
H6C H -0.18670 0.13500 0.22670
C3C C -0.0632(3) 0.0928(3) 0.1990(3)
H1C H -0.09760 0.08200 0.16790
H2C H -0.04100 0.07030 0.35930
H3C H 0.08200 0.08200 0.31830
#END

data_CSD_CIF_ZZZWFC01
_audit_creation_date 2020-11-05
_audit_creation_method CSD-ConQuest-V1
_database_code_CSD ZZZWFC01
_database_code_depnum_ccdc_archive 'CCDC 2024277'
_chemical_formula_sum 'C12 H30 N8 Ni1 O12'
_chemical_formula_moiety
;
C12 H30 N6 Ni1 O6 2+,2(N1 O3 1-)
;
_journal_coden_Cambridge 4
_journal_volume 142
_journal_year 2020
_journal_page_first 19170
_journal_name_full 'J.Am.Chem.Soc. '
loop_
_publ_author_name
"R.D.McGillicuddy"
"S.Thapa"
"M.B.Wenny"
"M.I.Gonzalez"
"J.A.Mason"
_chemical_name_systematic
;
hexakis(acetamide)-nickel(ii) bis(nitrate)
;
_chemical_melting_point 397
_cell_volume   4746.036
_exptl_crystal_colour 'green'
_exptl_crystal_density_diffrn 1.503
_exptl_special_details
;
Hygroscopic

;
_exptl_crystal_description 'cube'
_diffrn_ambient_temperature 100
#These two values have been output from a single CSD field.
_refine_ls_R_factor_gt 0.0321
_refine_ls_wR_factor_gt 0.0321
_symmetry_cell_setting cubic
_symmetry_space_group_name_H-M 'I a -3'
_symmetry_Int_Tables_number 206
loop_
_symmetry_equiv_pos_site_id
_symmetry_equiv_pos_as_xyz
1 x,y,z
2 1/2-x,-y,1/2+z
3 -x,1/2+y,1/2-z
4 1/2+x,1/2-y,-z
5 z,x,y
6 1/2+z,1/2-x,-y
7 1/2-z,-x,1/2+y
8 -z,1/2+x,1/2-y
9 y,z,x
10 -y,1/2+z,1/2-x
11 1/2+y,1/2-z,-x
12 1/2-y,-z,1/2+x
13 1/2+x,1/2+y,1/2+z
14 -x,1/2-y,z
15 1/2-x,y,-z
16 x,-y,1/2-z
17 1/2+z,1/2+x,1/2+y
18 z,-x,1/2-y
19 -z,1/2-x,y
20 1/2-z,x,-y
21 1/2+y,1/2+z,1/2+x
22 1/2-y,z,-x
23 y,-z,1/2-x
24 -y,1/2-z,x
25 -x,-y,-z
26 -1/2+x,y,-1/2-z
27 x,-1/2-y,-1/2+z
28 -1/2-x,-1/2+y,z
29 -z,-x,-y
30 -1/2-z,-1/2+x,y
31 -1/2+z,x,-1/2-y
32 z,-1/2-x,-1/2+y
33 -y,-z,-x
34 y,-1/2-z,-1/2+x
35 -1/2-y,-1/2+z,x
36 -1/2+y,z,-1/2-x
37 -1/2-x,-1/2-y,-1/2-z
38 x,-1/2+y,-z
39 -1/2+x,-y,z
40 -x,y,-1/2+z
41 -1/2-z,-1/2-x,-1/2-y
42 -z,x,-1/2+y
43 z,-1/2+x,-y
44 -1/2+z,-x,y
45 -1/2-y,-1/2-z,-1/2-x
46 -1/2+y,-z,x
47 -y,z,-1/2+x
48 y,-1/2+z,-x
_cell_length_a 16.8052(11)
_cell_length_b 16.8052(11)
_cell_length_c 16.8052(11)
_cell_angle_alpha 90
_cell_angle_beta 90
_cell_angle_gamma 90
_cell_formula_units_Z 8
loop_
_atom_type_symbol
_atom_type_radius_bond
C 0.68
H 0.23
N 0.68
Ni 1.24
O 0.68
loop_
_atom_site_label
_atom_site_type_symbol
_atom_site_fract_x
_atom_site_fract_y
_atom_site_fract_z
Ni1 Ni 0.25000 0.25000 0.25000
O1 O 0.29041(9) 0.21524(9) 0.36077(9)
N1 N 0.41818(15) 0.18530(16) 0.33460(15)
H1 H 0.4151(18) 0.2067(17) 0.2902(19)
H2 H 0.463(2) 0.1650(19) 0.3497(19)
C1 C 0.35645(15) 0.18851(14) 0.38218(14)
C2 C 0.36718(16) 0.15811(15) 0.46512(15)
H3 H 0.37660 0.20300 0.50120
H4 H 0.41290 0.12190 0.46680
H5 H 0.31910 0.12960 0.48170
O2 O 0.55300(12) 0.06806(11) 0.35015(11)
N2 N 0.59027(12) 0.09027(12) 0.40973(12)
O1D O 0.36077(9) 0.29041(9) 0.21524(9)
N1D N 0.33460(15) 0.41818(16) 0.18530(15)
H1D H 0.2902(18) 0.4151(17) 0.2067(19)
H2D H 0.3497(20) 0.4630(19) 0.1650(19)
C1D C 0.38218(15) 0.35645(14) 0.18851(14)
C2D C 0.46512(16) 0.36718(15) 0.15811(15)
H3D H 0.50120 0.37660 0.20300
H4D H 0.46680 0.41290 0.12190
H5D H 0.48170 0.31910 0.12960
O1H O 0.21524(9) 0.36077(9) 0.29041(9)
N1H N 0.18530(15) 0.33460(16) 0.41818(15)
H1H H 0.2067(18) 0.2902(17) 0.4151(19)
H2H H 0.165(2) 0.3497(19) 0.4630(19)
C1H C 0.18851(15) 0.38218(14) 0.35645(14)
C2H C 0.15811(16) 0.46512(15) 0.36718(15)
H3H H 0.20300 0.50120 0.37660
H4H H 0.12190 0.46680 0.41290
H5H H 0.12960 0.48170 0.31910
O1JA O 0.20959(9) 0.28476(9) 0.13923(9)
N1JA N 0.08182(15) 0.31470(16) 0.16540(15)
H1JA H 0.0849(18) 0.2933(17) 0.2098(19)
H2JA H 0.037(2) 0.3350(19) 0.1503(19)
C1JA C 0.14355(15) 0.31149(14) 0.11782(14)
C2JA C 0.13282(16) 0.34189(15) 0.03488(15)
H3JA H 0.12340 0.29700 -0.00120
H4JA H 0.08710 0.37810 0.03320
H5JA H 0.18090 0.37040 0.01830
O1NA O 0.13923(9) 0.20959(9) 0.28476(9)
N1NA N 0.16540(15) 0.08182(16) 0.31470(15)
H1NA H 0.2098(18) 0.0849(17) 0.2933(19)
H2NA H 0.1503(20) 0.0370(19) 0.3350(19)
C1NA C 0.11782(15) 0.14355(14) 0.31149(14)
C2NA C 0.03488(16) 0.13282(15) 0.34189(15)
H3NA H -0.00120 0.12340 0.29700
H4NA H 0.03320 0.08710 0.37810
H5NA H 0.01830 0.18090 0.37040
O1RA O 0.28476(9) 0.13923(9) 0.20959(9)
N1RA N 0.31470(15) 0.16540(16) 0.08182(15)
H1RA H 0.2933(18) 0.2098(17) 0.0849(19)
H2RA H 0.335(2) 0.1503(19) 0.0370(19)
C1RA C 0.31149(15) 0.11782(14) 0.14355(14)
C2RA C 0.34189(16) 0.03488(15) 0.13282(15)
H3RA H 0.29700 -0.00120 0.12340
H4RA H 0.37810 0.03320 0.08710
H5RA H 0.37040 0.01830 0.18090
O2G O 0.64985(12) 0.05300(11) 0.43194(11)
O2J O 0.56806(12) 0.14985(11) 0.44700(11)
#END
