
#######################################################################
#
#                 Cambridge Crystallographic Data Centre
#                                CCDC
#
#######################################################################
#
# If this CIF has been generated from an entry in the Cambridge
# Structural Database, then it will include bibliographic, chemical,
# crystal, experimental, refinement or atomic coordinate data resulting
# from the CCDC's data processing and validation procedures.
#
#######################################################################

data_CSD_CIF_LOSZAX
_audit_creation_date 2019-11-01
_audit_creation_method CSD-ConQuest-V1
_database_code_CSD LOSZAX
_database_code_depnum_ccdc_archive 'CCDC 1904963'
_chemical_formula_sum 'C48 H89.34 Eu2 N8 O51.67 Ti8'
_chemical_formula_moiety
;
C32 H50 Eu2 O44 Ti8,8(C2 H3 N1),7.67(H2 O1)
;
_journal_coden_Cambridge 9
_journal_volume 58
_journal_year 2019
_journal_page_first 14617
_journal_name_full 'Inorg.Chem. '
loop_
_publ_author_name
"Wen Luo"
"Dan-Hong Zou"
"Shen Yang"
"Li-Na Cui"
"Pei-Yi Liu"
"Qin-Yu Zhu"
"Jie Dai"
_chemical_name_systematic
;
hexadecakis(\m-acetato)-bis(\m-hydroxo)-decakis(\m-oxo)-di-europium-octa-titan
ium acetonitrile solvate hydrate
;
_cell_volume  14868.789
_exptl_crystal_colour 'colorless'
_exptl_crystal_density_diffrn 1.524
_exptl_crystal_description 'block'
_diffrn_ambient_temperature 120
#These two values have been output from a single CSD field.
_refine_ls_R_factor_gt 0.042
_refine_ls_wR_factor_gt 0.042
_symmetry_cell_setting cubic
_symmetry_space_group_name_H-M 'I m -3 m'
_symmetry_Int_Tables_number 229
loop_
_symmetry_equiv_pos_site_id
_symmetry_equiv_pos_as_xyz
1 x,y,z
2 -y,x,z
3 -x,-y,z
4 y,-x,z
5 x,-y,-z
6 y,x,-z
7 -x,y,-z
8 -y,-x,-z
9 z,x,y
10 -x,z,y
11 -z,-x,y
12 x,-z,y
13 z,-x,-y
14 x,z,-y
15 -z,x,-y
16 -x,-z,-y
17 y,z,x
18 -z,-y,-x
19 -z,y,x
20 z,y,-x
21 z,-y,x
22 y,-z,-x
23 -y,-z,x
24 -y,z,-x
25 1/2+x,1/2+y,1/2+z
26 1/2-y,1/2+x,1/2+z
27 1/2-x,1/2-y,1/2+z
28 1/2+y,1/2-x,1/2+z
29 1/2+x,1/2-y,1/2-z
30 1/2+y,1/2+x,1/2-z
31 1/2-x,1/2+y,1/2-z
32 1/2-y,1/2-x,1/2-z
33 1/2+z,1/2+x,1/2+y
34 1/2-x,1/2+z,1/2+y
35 1/2-z,1/2-x,1/2+y
36 1/2+x,1/2-z,1/2+y
37 1/2+z,1/2-x,1/2-y
38 1/2+x,1/2+z,1/2-y
39 1/2-z,1/2+x,1/2-y
40 1/2-x,1/2-z,1/2-y
41 1/2+y,1/2+z,1/2+x
42 1/2-z,1/2-y,1/2-x
43 1/2-z,1/2+y,1/2+x
44 1/2+z,1/2+y,1/2-x
45 1/2+z,1/2-y,1/2+x
46 1/2+y,1/2-z,1/2-x
47 1/2-y,1/2-z,1/2+x
48 1/2-y,1/2+z,1/2-x
49 -x,-y,-z
50 y,-x,-z
51 x,y,-z
52 -y,x,-z
53 -x,y,z
54 -y,-x,z
55 x,-y,z
56 y,x,z
57 -z,-x,-y
58 x,-z,-y
59 z,x,-y
60 -x,z,-y
61 -z,x,y
62 -x,-z,y
63 z,-x,y
64 x,z,y
65 -y,-z,-x
66 z,y,x
67 z,-y,-x
68 -z,-y,x
69 -z,y,-x
70 -y,z,x
71 y,z,-x
72 y,-z,x
73 -1/2-x,-1/2-y,-1/2-z
74 -1/2+y,-1/2-x,-1/2-z
75 -1/2+x,-1/2+y,-1/2-z
76 -1/2-y,-1/2+x,-1/2-z
77 -1/2-x,-1/2+y,-1/2+z
78 -1/2-y,-1/2-x,-1/2+z
79 -1/2+x,-1/2-y,-1/2+z
80 -1/2+y,-1/2+x,-1/2+z
81 -1/2-z,-1/2-x,-1/2-y
82 -1/2+x,-1/2-z,-1/2-y
83 -1/2+z,-1/2+x,-1/2-y
84 -1/2-x,-1/2+z,-1/2-y
85 -1/2-z,-1/2+x,-1/2+y
86 -1/2-x,-1/2-z,-1/2+y
87 -1/2+z,-1/2-x,-1/2+y
88 -1/2+x,-1/2+z,-1/2+y
89 -1/2-y,-1/2-z,-1/2-x
90 -1/2+z,-1/2+y,-1/2+x
91 -1/2+z,-1/2-y,-1/2-x
92 -1/2-z,-1/2-y,-1/2+x
93 -1/2-z,-1/2+y,-1/2-x
94 -1/2-y,-1/2+z,-1/2+x
95 -1/2+y,-1/2+z,-1/2-x
96 -1/2+y,-1/2-z,-1/2+x
_cell_length_a 24.5900(12)
_cell_length_b 24.5900(12)
_cell_length_c 24.5900(12)
_cell_angle_alpha 90
_cell_angle_beta 90
_cell_angle_gamma 90
_cell_formula_units_Z 6
loop_
_atom_type_symbol
_atom_type_radius_bond
C 0.68
H 0.23
Eu 1.98
N 0.68
O 0.68
Ti 1.60
loop_
_atom_site_label
_atom_site_type_symbol
_atom_site_fract_x
_atom_site_fract_y
_atom_site_fract_z
Eu1 Eu 0.00000 0.00000 0.33963(2)
Ti1 Ti 0.00000 0.10101(4) 0.42990(4)
O1 O 0.00000 0.08454(19) 0.29487(18)
O2 O 0.00000 0.14655(18) 0.36079(18)
O3 O 0.05673(13) 0.15829(12) 0.45439(12)
O4 O 0.00000 0.0753(2) 0.50000
O5 O -0.05386(12) 0.05386(12) 0.40311(16)
C1 C 0.00000 0.1326(3) 0.3109(3)
C2 C 0.00000 0.1778(3) 0.2700(3)
C3 C 0.0732(2) 0.1754(2) 0.50000
C4 C 0.1133(3) 0.2211(3) 0.50000
N1 N 0.1473(3) 0.3484(5) 0.1473(3)
C5 C 0.1881(5) 0.3661(6) 0.1881(5)
C6 C 0.2208(4) 0.3837(6) 0.2208(4)
O6 O 0.106(2) 0.106(2) 0.106(2)
O7 O 0.00000 0.00000 0.00000
O8 O 0.178(2) 0.178(2) 0.178(2)
O9 O 0.00000 0.00000 0.166(8)
H1? H 0.09493 0.25483 0.51067
H2? H 0.12863 0.22531 0.46346
H3? H 0.14253 0.21314 0.52587
H4? H 0.02836 0.20421 0.27933
H5? H -0.03553 0.19589 0.27013
H6? H 0.00716 0.16295 0.23368
H7? H 0.20439 0.38410 0.25711
H8? H 0.23117 0.42081 0.21052
H9? H 0.25316 0.36048 0.22109
O3XA O 0.05673(13) 0.15829(12) 0.54561(12)
Ti1A Ti -0.10101 0.00000(4) 0.42990(4)
O1A O -0.08454 0.00000(19) 0.29487(18)
O2A O -0.14655 0.00000(18) 0.36079(18)
O3A O -0.15829(13) 0.05673(12) 0.45439(12)
O4A O -0.07530 0.0000(2) 0.50000
O5A O -0.05386(12) -0.05386(12) 0.40311(16)
C1A C -0.13260 0.0000(3) 0.3109(3)
C2A C -0.17780 0.0000(3) 0.2700(3)
C3A C -0.1754(2) 0.0732(2) 0.50000
C4A C -0.2211(3) 0.1133(3) 0.50000
O3YA O -0.15829(13) 0.05673(12) 0.54561(12)
Ti1B Ti 0.00000 -0.10101(4) 0.42990(4)
O1B O 0.00000 -0.08454(19) 0.29487(18)
O2B O 0.00000 -0.14655(18) 0.36079(18)
O3B O -0.05673(13) -0.15829(12) 0.45439(12)
O4B O 0.00000 -0.0753(2) 0.50000
O5B O 0.05386(12) -0.05386(12) 0.40311(16)
C1B C 0.00000 -0.1326(3) 0.3109(3)
C2B C 0.00000 -0.1778(3) 0.2700(3)
C3B C -0.0732(2) -0.1754(2) 0.50000
C4B C -0.1133(3) -0.2211(3) 0.50000
O3VA O -0.05673(13) -0.15829(12) 0.54561(12)
Ti1C Ti 0.10101 0.00000(4) 0.42990(4)
O1C O 0.08454 0.00000(19) 0.29487(18)
O2C O 0.14655 0.00000(18) 0.36079(18)
O3C O 0.15829(13) -0.05673(12) 0.45439(12)
O4C O 0.07530 0.0000(2) 0.50000
O5C O 0.05386(12) 0.05386(12) 0.40311(16)
C1C C 0.13260 0.0000(3) 0.3109(3)
C2C C 0.17780 0.0000(3) 0.2700(3)
C3C C 0.1754(2) -0.0732(2) 0.50000
C4C C 0.2211(3) -0.1133(3) 0.50000
O3WA O 0.15829(13) -0.05673(12) 0.54561(12)
Eu1D Eu 0.00000 0.00000 0.66037(2)
Ti1D Ti 0.00000 -0.10101(4) 0.57010(4)
O1D O 0.00000 -0.08454(19) 0.70513(18)
O2D O 0.00000 -0.14655(18) 0.63921(18)
O3D O 0.05673(13) -0.15829(12) 0.54561(12)
O5D O -0.05386(12) -0.05386(12) 0.59689(16)
C1D C 0.00000 -0.1326(3) 0.6891(3)
C2D C 0.00000 -0.1778(3) 0.7300(3)
C3D C 0.0732(2) -0.1754(2) 0.50000
C4D C 0.1133(3) -0.2211(3) 0.50000
O3BB O 0.05673(13) -0.15829(12) 0.45439(12)
Ti1E Ti 0.10101 0.00000(4) 0.57010(4)
O1E O 0.08454 0.00000(19) 0.70513(18)
O2E O 0.14655 0.00000(18) 0.63921(18)
O3E O 0.15829(13) 0.05673(12) 0.54561(12)
O5E O 0.05386(12) -0.05386(12) 0.59689(16)
C1E C 0.13260 0.0000(3) 0.6891(3)
C2E C 0.17780 0.0000(3) 0.7300(3)
C3E C 0.1754(2) 0.0732(2) 0.50000
C4E C 0.2211(3) 0.1133(3) 0.50000
O3CB O 0.15829(13) 0.05673(12) 0.45439(12)
Ti1F Ti 0.00000 0.10101(4) 0.57010(4)
O1F O 0.00000 0.08454(19) 0.70513(18)
O2F O 0.00000 0.14655(18) 0.63921(18)
O3F O -0.05673(13) 0.15829(12) 0.54561(12)
O5F O 0.05386(12) 0.05386(12) 0.59689(16)
C1F C 0.00000 0.1326(3) 0.6891(3)
C2F C 0.00000 0.1778(3) 0.7300(3)
C3F C -0.0732(2) 0.1754(2) 0.50000
C4F C -0.1133(3) 0.2211(3) 0.50000
O3ZA O -0.05673(13) 0.15829(12) 0.45439(12)
Ti1G Ti -0.10101 0.00000(4) 0.57010(4)
O1G O -0.08454 0.00000(19) 0.70513(18)
O2G O -0.14655 0.00000(18) 0.63921(18)
O3G O -0.15829(13) -0.05673(12) 0.54561(12)
O5G O -0.05386(12) 0.05386(12) 0.59689(16)
C1G C -0.13260 0.0000(3) 0.6891(3)
C2G C -0.17780 0.0000(3) 0.7300(3)
C3G C -0.1754(2) -0.0732(2) 0.50000
C4G C -0.2211(3) -0.1133(3) 0.50000
O3AB O -0.15829(13) -0.05673(12) 0.45439(12)
#END
