
#######################################################################
#
#                 Cambridge Crystallographic Data Centre
#                                CCDC
#
#######################################################################
#
# If this CIF has been generated from an entry in the Cambridge
# Structural Database, then it will include bibliographic, chemical,
# crystal, experimental, refinement or atomic coordinate data resulting
# from the CCDC's data processing and validation procedures.
#
#######################################################################

data_CSD_CIF_FUBYUW
_audit_creation_date 1988-06-10
_audit_creation_method CSD-ConQuest-V1
_database_code_CSD FUBYUW
_database_code_depnum_ccdc_archive 'CCDC 1160404'
_chemical_formula_sum 'C4 Co1 Li1 O4'
_chemical_formula_moiety
;
C4 Co1 O4 1-,Li1 1+
;
_journal_coden_Cambridge 643
_journal_volume 167
_journal_year 1984
_journal_page_first 275
_journal_name_full 'Z.Krist.Cryst.Mater. '
loop_
_publ_author_name
"P.Klufers"
_chemical_name_systematic
;
Lithium tetracarbonyl-cobalt
;
_cell_volume    170.216
_exptl_crystal_density_diffrn 1.736
_diffrn_ambient_temperature ?
_diffrn_special_details
;
The study was carried out at room temperature,in the range 283-303K

;
#These two values have been output from a single CSD field.
_refine_ls_R_factor_gt 0.0102
_refine_ls_wR_factor_gt 0.0102
_symmetry_cell_setting cubic
_symmetry_space_group_name_H-M 'P -4 3 m'
_symmetry_Int_Tables_number 215
loop_
_symmetry_equiv_pos_site_id
_symmetry_equiv_pos_as_xyz
1 x,y,z
2 z,x,y
3 y,z,x
4 -y,x,-z
5 -x,z,-y
6 -z,y,-x
7 x,-y,-z
8 z,-x,-y
9 y,-z,-x
10 -y,-x,z
11 -x,-z,y
12 -z,-y,x
13 -x,y,-z
14 -z,x,-y
15 -y,z,-x
16 y,x,z
17 x,z,y
18 z,y,x
19 -x,-y,z
20 -z,-x,y
21 -y,-z,x
22 y,-x,-z
23 x,-z,-y
24 z,-y,-x
_cell_length_a 5.542(1)
_cell_length_b 5.542(1)
_cell_length_c 5.542(1)
_cell_angle_alpha 90
_cell_angle_beta 90
_cell_angle_gamma 90
_cell_formula_units_Z 1
loop_
_atom_type_symbol
_atom_type_radius_bond
C 0.68
Co 1.33
Li 0.68
O 0.68
loop_
_atom_site_label
_atom_site_type_symbol
_atom_site_fract_x
_atom_site_fract_y
_atom_site_fract_z
Li1 Li 0.00000 0.00000 0.00000
Co1 Co 0.50000 0.50000 0.50000
C1 C 0.3185(3) 0.3185(3) 0.3185(3)
O1 O 0.1992(2) 0.1992(2) 0.1992(2)
C1C C 0.6815(3) 0.3185(3) 0.6815(3)
C1F C 0.3185(3) 0.6815(3) 0.6815(3)
C1I C 0.6815(3) 0.6815(3) 0.3185(3)
O1C O 0.8008(2) 0.1992(2) 0.8008(2)
O1F O 0.1992(2) 0.8008(2) 0.8008(2)
O1I O 0.8008(2) 0.8008(2) 0.1992(2)
#END

data_CSD_CIF_YUMNUP
_audit_creation_date 1996-01-30
_audit_creation_method CSD-ConQuest-V1
_database_code_CSD YUMNUP
_database_code_depnum_ccdc_fiz 'CSD 58748'
_chemical_formula_sum 'C16 H48 B4 Zr1'
_chemical_formula_moiety
;
C16 H48 B4 Zr1
;
_journal_coden_Cambridge 155
_journal_volume 231
_journal_year 1995
_journal_page_first 175
_journal_name_full 'Inorg.Chim.Acta '
loop_
_publ_author_name
"U.Welling"
"P.Paetzold"
"U.Englert"
_chemical_name_systematic
;
tetrakis(t-Butyltrihydroborato)-zirconium
;
_chemical_name_common
;
tetrakis(tris(mu!2$-hydrido)borato)-zirconium
;
_chemical_melting_point 394.15
_cell_volume    650.813
_exptl_crystal_density_diffrn 0.957
_exptl_special_details
;
Melts with decomposition.
Crystal connectivity is correct though the bridging H atoms have not been 
input in the 2D diagram due to program restraints
;
_diffrn_ambient_temperature ?
_diffrn_special_details
;
The study was carried out at room temperature,in the range 283-303K

;
#These two values have been output from a single CSD field.
_refine_ls_R_factor_gt 0.043
_refine_ls_wR_factor_gt 0.043
_symmetry_cell_setting cubic
_symmetry_space_group_name_H-M 'P -4 3 m'
_symmetry_Int_Tables_number 215
loop_
_symmetry_equiv_pos_site_id
_symmetry_equiv_pos_as_xyz
1 x,y,z
2 y,-x,-z
3 x,-y,-z
4 z,x,y
5 -x,-y,z
6 -y,-x,z
7 x,-z,-y
8 -y,x,-z
9 -x,y,-z
10 -z,-x,y
11 y,x,z
12 -x,z,-y
13 z,-x,-y
14 x,z,y
15 -z,x,-y
16 -x,-z,y
17 y,z,x
18 z,-y,-x
19 -z,-y,x
20 y,-z,-x
21 z,y,x
22 -y,z,-x
23 -y,-z,x
24 -z,y,-x
_cell_length_a 8.666(3)
_cell_length_b 8.666(3)
_cell_length_c 8.666(3)
_cell_angle_alpha 90
_cell_angle_beta 90
_cell_angle_gamma 90
_cell_formula_units_Z 1
loop_
_atom_type_symbol
_atom_type_radius_bond
C 0.68
H 0.23
B 0.83
Zr 1.56
loop_
_atom_site_label
_atom_site_type_symbol
_atom_site_fract_x
_atom_site_fract_y
_atom_site_fract_z
Zr1 Zr 1.00000 1.00000 1.00000
C1 C 0.7384(5) 0.73840 0.73840
C2 C 0.5795(7) 0.7703(6) 0.77030
B1 B 0.8445(6) 0.84450 0.84450
H1? H 0.970(7) 0.833(5) 0.83300
H2 H 0.51200 0.82600 0.82600
H3 H 0.57200 0.79900 0.67100
H3M H 0.57200 0.67100 0.79900
C2C C 0.7703(7) 0.5795(6) 0.77030
H2C H 0.82600 0.51200 0.82600
H3C H 0.67100 0.57200 0.79900
H3J H 0.79900 0.57200 0.67100
C2P C 0.7703(7) 0.7703(6) 0.57950
H2P H 0.82600 0.82600 0.51200
H3P H 0.79900 0.67100 0.57200
H3T H 0.67100 0.79900 0.57200
B1A B 0.8445(6) 1.15550 1.15550
C1A C 0.7384(5) 1.26160 1.26160
C2A C 0.7703(7) 1.4205(6) 1.22970
H2A H 0.82600 1.48800 1.17400
H3A H 0.79900 1.42800 1.32900
H3L H 0.67100 1.42800 1.20100
C2F C 0.5795(7) 1.2297(6) 1.22970
H2F H 0.51200 1.17400 1.17400
H3F H 0.57200 1.32900 1.20100
H3B H 0.57200 1.20100 1.32900
C2Q C 0.7703(7) 1.2297(6) 1.42050
H2Q H 0.82600 1.17400 1.48800
H3Q H 0.67100 1.20100 1.42800
H3S H 0.79900 1.32900 1.42800
B1D B 1.1555(6) 1.15550 0.84450
C1D C 1.2616(5) 1.26160 0.73840
C2D C 1.4205(7) 1.2297(6) 0.77030
H2D H 1.48800 1.17400 0.82600
H3D H 1.42800 1.20100 0.67100
H3O H 1.42800 1.32900 0.79900
C2I C 1.2297(7) 1.4205(6) 0.77030
H2I H 1.17400 1.48800 0.82600
H3I H 1.32900 1.42800 0.79900
H3E H 1.20100 1.42800 0.67100
C2V C 1.2297(7) 1.2297(6) 0.57950
H2V H 1.17400 1.17400 0.51200
H3V H 1.20100 1.32900 0.57200
H3R H 1.32900 1.20100 0.57200
B1G B 1.1555(6) 0.84450 1.15550
C1G C 1.2616(5) 0.73840 1.26160
C2G C 1.2297(7) 0.5795(6) 1.22970
H2G H 1.17400 0.51200 1.17400
H3G H 1.20100 0.57200 1.32900
H3N H 1.32900 0.57200 1.20100
C2K C 1.4205(7) 0.7703(6) 1.22970
H2K H 1.48800 0.82600 1.17400
H3K H 1.42800 0.67100 1.20100
H3H H 1.42800 0.79900 1.32900
C2W C 1.2297(7) 0.7703(6) 1.42050
H2W H 1.17400 0.82600 1.48800
H3W H 1.32900 0.79900 1.42800
H3U H 1.20100 0.67100 1.42800
#END
