
#######################################################################
#
#                 Cambridge Crystallographic Data Centre
#                                CCDC
#
#######################################################################
#
# If this CIF has been generated from an entry in the Cambridge
# Structural Database, then it will include bibliographic, chemical,
# crystal, experimental, refinement or atomic coordinate data resulting
# from the CCDC's data processing and validation procedures.
#
#######################################################################

data_CSD_CIF_ALIHOV
_audit_creation_date 2021-01-19
_audit_creation_method CSD-ConQuest-V1
_database_code_CSD ALIHOV
_database_code_depnum_ccdc_archive 'CCDC 2042204'
_chemical_formula_sum 'C80 H64 Al8 Br8 N16 O24'
_chemical_formula_moiety
;
C80 H64 Al8 Br8 N16 O24
;
_journal_coden_Cambridge 4
_journal_volume 143
_journal_year 2021
_journal_page_first 2325
_journal_name_full 'J.Am.Chem.Soc. '
loop_
_publ_author_name
"Shuyang Yao"
"Wei-Hui Fang"
"Yayong Sun"
"San-Tai Wang"
"Jian Zhang"
_chemical_name_systematic
;
octakis(\m-benzoato)-octakis(\m-4-bromopyrazolato)-octakis(\m-hydroxido)-octa-
aluminium(iii)
;
_cell_volume   9451.078
_exptl_crystal_colour 'colorless'
_exptl_special_details
;
We calculate void space in the structure

;
_exptl_crystal_description 'prism'
_diffrn_ambient_temperature 293
#These two values have been output from a single CSD field.
_refine_ls_R_factor_gt 0.0362
_refine_ls_wR_factor_gt 0.0362
_symmetry_cell_setting cubic
_symmetry_space_group_name_H-M 'P 4 3 2'
_symmetry_Int_Tables_number 207
loop_
_symmetry_equiv_pos_site_id
_symmetry_equiv_pos_as_xyz
1 x,y,z
2 -x,-y,z
3 -x,y,-z
4 x,-y,-z
5 z,x,y
6 z,-x,-y
7 -z,-x,y
8 -z,x,-y
9 y,z,x
10 -y,z,-x
11 y,-z,-x
12 -y,-z,x
13 y,x,-z
14 -y,-x,-z
15 y,-x,z
16 -y,x,z
17 x,z,-y
18 -x,z,y
19 -x,-z,-y
20 x,-z,y
21 z,y,-x
22 z,-y,x
23 -z,y,x
24 -z,-y,-x
_cell_length_a 21.1427(2)
_cell_length_b 21.1427(2)
_cell_length_c 21.1427(2)
_cell_angle_alpha 90
_cell_angle_beta 90
_cell_angle_gamma 90
_cell_formula_units_Z 3
loop_
_atom_type_symbol
_atom_type_radius_bond
C 0.68
H 0.23
Al 1.21
Br 1.21
N 0.68
O 0.68
loop_
_atom_site_label
_atom_site_type_symbol
_atom_site_fract_x
_atom_site_fract_y
_atom_site_fract_z
Br1 Br 0.76662(3) 0.89987(2) 0.23789(2)
Al1 Al 0.80108(5) 1.00000 0.50000
Al2 Al 0.85990(4) 0.85990(4) 0.50000
O1 O 0.7773(1) 0.85029(10) 0.53423(10)
O2 O 0.73589(10) 0.94793(10) 0.53507(10)
O3 O 0.86054(10) 0.94233(10) 0.52788(10)
H1 H 0.89134 0.95520 0.55652
N1 N 0.79884(13) 0.95169(12) 0.41893(12)
N2 N 0.82357(13) 0.89243(13) 0.41873(13)
C1 C 0.73549(14) 0.89001(14) 0.54991(14)
C2 C 0.68164(16) 0.86664(15) 0.58836(16)
C3 C 0.78873(19) 0.91173(18) 0.32343(16)
C4 C 0.6797(2) 0.80421(19) 0.6074(2)
H2 H 0.71131 0.77659 0.59418
C5 C 0.77722(18) 0.96376(16) 0.36054(16)
H3 H 0.75778 1.00098 0.34744
C6 C 0.81687(18) 0.86757(17) 0.36164(16)
H4 H 0.82915 0.82710 0.34955
C7 C 0.63391(17) 0.90754(17) 0.60660(19)
H5 H 0.63454 0.94954 0.59354
C8 C 0.5853(2) 0.8855(2) 0.6444(2)
H6 H 0.55283 0.91264 0.65645
C9 C 0.6314(2) 0.7820(2) 0.6458(3)
H7 H 0.63051 0.74003 0.65884
C10 C 0.5850(2) 0.8236(3) 0.6640(2)
H8 H 0.55262 0.80947 0.69027
Br1C Br 0.76662(3) 1.10013(2) 0.76211(2)
Al2C Al 0.85990(4) 1.14010(4) 0.50000
O1C O 0.7773(1) 1.14971(10) 0.46577(10)
O2C O 0.73589(10) 1.05207(10) 0.46493(10)
O3C O 0.86054(10) 1.05767(10) 0.47212(10)
H1C H 0.89134 1.04480 0.44348
N1C N 0.79884(13) 1.04831(12) 0.58107(12)
N2C N 0.82357(13) 1.10757(13) 0.58127(13)
C1C C 0.73549(14) 1.10999(14) 0.45009(14)
C2C C 0.68164(16) 1.13336(15) 0.41164(16)
C3C C 0.78873(19) 1.08827(18) 0.67657(16)
C4C C 0.6797(2) 1.19579(19) 0.3926(2)
H2C H 0.71131 1.22341 0.40582
C5C C 0.77722(18) 1.03624(16) 0.63946(16)
H3C H 0.75778 0.99902 0.65256
C6C C 0.81687(18) 1.13243(17) 0.63836(16)
H4C H 0.82915 1.17290 0.65045
C7C C 0.63391(17) 1.09246(17) 0.39340(19)
H5C H 0.63454 1.05046 0.40646
C8C C 0.5853(2) 1.1145(2) 0.3556(2)
H6C H 0.55283 1.08736 0.34355
C9C C 0.6314(2) 1.2180(2) 0.3542(3)
H7C H 0.63051 1.25997 0.34116
C10C C 0.5850(2) 1.1764(3) 0.3360(2)
H8C H 0.55262 1.19053 0.30973
Br1L Br 0.89987(3) 0.76662(2) 0.76211(2)
Al1L Al 1.00000(5) 0.80108 0.50000
O1L O 0.85029(10) 0.7773(1) 0.46577(10)
O2L O 0.94793(10) 0.73589(10) 0.46493(10)
O3L O 0.94233(10) 0.86054(10) 0.47212(10)
H1L H 0.95520 0.89134 0.44348
N1L N 0.95169(13) 0.79884(12) 0.58107(12)
N2L N 0.89243(13) 0.82357(13) 0.58127(13)
C1L C 0.89001(14) 0.73549(14) 0.45009(14)
C2L C 0.86664(16) 0.68164(15) 0.41164(16)
C3L C 0.91173(19) 0.78873(18) 0.67657(16)
C4L C 0.80421(20) 0.67970(19) 0.3926(2)
H2L H 0.77659 0.71131 0.40582
C5L C 0.96376(18) 0.77722(16) 0.63946(16)
H3L H 1.00098 0.75778 0.65256
C6L C 0.86757(18) 0.81687(17) 0.63836(16)
H4L H 0.82710 0.82915 0.65045
C7L C 0.90754(17) 0.63391(17) 0.39340(19)
H5L H 0.94954 0.63454 0.40646
C8L C 0.8855(2) 0.5853(2) 0.3556(2)
H6L H 0.91264 0.55283 0.34355
C9L C 0.7820(2) 0.6314(2) 0.3542(3)
H7L H 0.74003 0.63051 0.34116
C10L C 0.8236(2) 0.5850(3) 0.3360(2)
H8L H 0.80947 0.55262 0.30973
Br1N Br 0.89987(3) 1.23338(2) 0.23789(2)
Al1M Al 1.00000(5) 1.19892 0.50000
O1N O 0.85029(10) 1.2227(1) 0.53423(10)
O2N O 0.94793(10) 1.26411(10) 0.53507(10)
O3N O 0.94233(10) 1.13946(10) 0.52788(10)
H1N H 0.95520 1.10866 0.55652
N1N N 0.95169(13) 1.20116(12) 0.41893(12)
N2N N 0.89243(13) 1.17643(13) 0.41873(13)
C1N C 0.89001(14) 1.26451(14) 0.54991(14)
C2N C 0.86664(16) 1.31836(15) 0.58836(16)
C3N C 0.91173(19) 1.21127(18) 0.32343(16)
C4N C 0.80421(20) 1.32030(19) 0.6074(2)
H2N H 0.77659 1.28869 0.59418
C5N C 0.96376(18) 1.22278(16) 0.36054(16)
H3N H 1.00098 1.24222 0.34744
C6N C 0.86757(18) 1.18313(17) 0.36164(16)
H4N H 0.82710 1.17085 0.34955
C7N C 0.90754(17) 1.36609(17) 0.60660(19)
H5N H 0.94954 1.36546 0.59354
C8N C 0.8855(2) 1.4147(2) 0.6444(2)
H6N H 0.91264 1.44717 0.65645
C9N C 0.7820(2) 1.3686(2) 0.6458(3)
H7N H 0.74003 1.36949 0.65884
C10N C 0.8236(2) 1.4150(3) 0.6640(2)
H8N H 0.80947 1.44738 0.69027
Br1O Br 1.10013(3) 0.76662(2) 0.23789(2)
Al2B Al 1.14010(4) 0.85990(4) 0.50000
O1O O 1.14971(10) 0.7773(1) 0.53423(10)
O2O O 1.05207(10) 0.73589(10) 0.53507(10)
O3O O 1.05767(10) 0.86054(10) 0.52788(10)
H1O H 1.04480 0.89134 0.55652
N1O N 1.04831(13) 0.79884(12) 0.41893(12)
N2O N 1.10757(13) 0.82357(13) 0.41873(13)
C1O C 1.10999(14) 0.73549(14) 0.54991(14)
C2O C 1.13336(16) 0.68164(15) 0.58836(16)
C3O C 1.08827(19) 0.78873(18) 0.32343(16)
C4O C 1.19579(20) 0.67970(19) 0.6074(2)
H2O H 1.22341 0.71131 0.59418
C5O C 1.03624(18) 0.77722(16) 0.36054(16)
H3O H 0.99902 0.75778 0.34744
C6O C 1.13243(18) 0.81687(17) 0.36164(16)
H4O H 1.17290 0.82915 0.34955
C7O C 1.09246(17) 0.63391(17) 0.60660(19)
H5O H 1.05046 0.63454 0.59354
C8O C 1.1145(2) 0.5853(2) 0.6444(2)
H6O H 1.08736 0.55283 0.65645
C9O C 1.2180(2) 0.6314(2) 0.6458(3)
H7O H 1.25997 0.63051 0.65884
C10O C 1.1764(2) 0.5850(3) 0.6640(2)
H8O H 1.19053 0.55262 0.69027
Br1B Br 1.23338(3) 0.89987(2) 0.76211(2)
Al1A Al 1.19892(5) 1.00000 0.50000
O1B O 1.2227(1) 0.85029(10) 0.46577(10)
O2B O 1.26411(10) 0.94793(10) 0.46493(10)
O3B O 1.13946(10) 0.94233(10) 0.47212(10)
H1B H 1.10866 0.95520 0.44348
N1B N 1.20116(13) 0.95169(12) 0.58107(12)
N2B N 1.17643(13) 0.89243(13) 0.58127(13)
C1B C 1.26451(14) 0.89001(14) 0.45009(14)
C2B C 1.31836(16) 0.86664(15) 0.41164(16)
C3B C 1.21127(19) 0.91173(18) 0.67657(16)
C4B C 1.3203(2) 0.80421(19) 0.3926(2)
H2B H 1.28869 0.77659 0.40582
C5B C 1.22278(18) 0.96376(16) 0.63946(16)
H3B H 1.24222 1.00098 0.65256
C6B C 1.18313(18) 0.86757(17) 0.63836(16)
H4B H 1.17085 0.82710 0.65045
C7B C 1.36609(17) 0.90754(17) 0.39340(19)
H5B H 1.36546 0.94954 0.40646
C8B C 1.4147(2) 0.8855(2) 0.3556(2)
H6B H 1.44717 0.91264 0.34355
C9B C 1.3686(2) 0.7820(2) 0.3542(3)
H7B H 1.36949 0.74003 0.34116
C10B C 1.4150(2) 0.8236(3) 0.3360(2)
H8B H 1.44738 0.80947 0.30973
Br1M Br 1.10013(3) 1.23338(2) 0.76211(2)
Al2A Al 1.14010(4) 1.14010(4) 0.50000
O1M O 1.14971(10) 1.2227(1) 0.46577(10)
O2M O 1.05207(10) 1.26411(10) 0.46493(10)
O3M O 1.05767(10) 1.13946(10) 0.47212(10)
H1M H 1.04480 1.10866 0.44348
N1M N 1.04831(13) 1.20116(12) 0.58107(12)
N2M N 1.10757(13) 1.17643(13) 0.58127(13)
C1M C 1.10999(14) 1.26451(14) 0.45009(14)
C2M C 1.13336(16) 1.31836(15) 0.41164(16)
C3M C 1.08827(19) 1.21127(18) 0.67657(16)
C4M C 1.19579(20) 1.32030(19) 0.3926(2)
H2M H 1.22341 1.28869 0.40582
C5M C 1.03624(18) 1.22278(16) 0.63946(16)
H3M H 0.99902 1.24222 0.65256
C6M C 1.13243(18) 1.18313(17) 0.63836(16)
H4M H 1.17290 1.17085 0.65045
C7M C 1.09246(17) 1.36609(17) 0.39340(19)
H5M H 1.05046 1.36546 0.40646
C8M C 1.1145(2) 1.4147(2) 0.3556(2)
H6M H 1.08736 1.44717 0.34355
C9M C 1.2180(2) 1.3686(2) 0.3542(3)
H7M H 1.25997 1.36949 0.34116
C10M C 1.1764(2) 1.4150(3) 0.3360(2)
H8M H 1.19053 1.44738 0.30973
Br1A Br 1.23338(3) 1.10013(2) 0.23789(2)
O1A O 1.2227(1) 1.14971(10) 0.53423(10)
O2A O 1.26411(10) 1.05207(10) 0.53507(10)
O3A O 1.13946(10) 1.05767(10) 0.52788(10)
H1A H 1.10866 1.04480 0.55652
N1A N 1.20116(13) 1.04831(12) 0.41893(12)
N2A N 1.17643(13) 1.10757(13) 0.41873(13)
C1A C 1.26451(14) 1.10999(14) 0.54991(14)
C2A C 1.31836(16) 1.13336(15) 0.58836(16)
C3A C 1.21127(19) 1.08827(18) 0.32343(16)
C4A C 1.3203(2) 1.19579(19) 0.6074(2)
H2A H 1.28869 1.22341 0.59418
C5A C 1.22278(18) 1.03624(16) 0.36054(16)
H3A H 1.24222 0.99902 0.34744
C6A C 1.18313(18) 1.13243(17) 0.36164(16)
H4A H 1.17085 1.17290 0.34955
C7A C 1.36609(17) 1.09246(17) 0.60660(19)
H5A H 1.36546 1.05046 0.59354
C8A C 1.4147(2) 1.1145(2) 0.6444(2)
H6A H 1.44717 1.08736 0.65645
C9A C 1.3686(2) 1.2180(2) 0.6458(3)
H7A H 1.36949 1.25997 0.65884
C10A C 1.4150(2) 1.1764(3) 0.6640(2)
H8A H 1.44738 1.19053 0.69027
#END

data_CSD_CIF_YOPRIF
_audit_creation_date 2009-08-17
_audit_creation_method CSD-ConQuest-V1
_database_code_CSD YOPRIF
_database_code_depnum_ccdc_archive 'CCDC 703495'
_chemical_formula_sum 'C23 H12 Br3 N3 O6'
_chemical_formula_moiety
;
C23 H12 Br3 N3 O6
;
_journal_coden_Cambridge 1220
_journal_volume 15
_journal_year 2009
_journal_page_first 2256
_journal_name_full 'Chem.-Eur.J. '
loop_
_publ_author_name
"J.Strube"
"B.Neumann"
"H.-G.Stammler"
"D.Kuck"
_chemical_name_systematic
;
rac-4b,8b,12b-Tribromo-12d-methyl-2,6,10-trinitro-4b,8b,12b,12d-tetrahydrodibe
nzo[2,3:4,5]pentaleno[1,6-ab]indene
;
_chemical_melting_point 589.15
_cell_volume   6443.163
_exptl_crystal_colour 'colorless'
_exptl_crystal_density_diffrn 1.373
_exptl_special_details
;
Melts with decomposition.
C!3$ isomer
The structure contains 23% void space. The authors state the residual 
electron density found from the diffraction data is very low, so despite the 
large void space the SQUEEZE/PLATON program was not used. NMR data leads the 
authors to assume up to 10 acetone solvent molecules could fill the void 
space in a heavily disordered manner
;
_exptl_crystal_description 'cube'
_exptl_crystal_preparation 'chloroform'
_diffrn_ambient_temperature 220
_diffrn_special_details
;
merohedral twin

;
#These two values have been output from a single CSD field.
_refine_ls_R_factor_gt 0.0294
_refine_ls_wR_factor_gt 0.0294
_symmetry_cell_setting cubic
_symmetry_space_group_name_H-M 'P 4 3 2'
_symmetry_Int_Tables_number 207
loop_
_symmetry_equiv_pos_site_id
_symmetry_equiv_pos_as_xyz
1 x,y,z
2 -y,x,z
3 -x,-y,z
4 y,-x,z
5 x,-y,-z
6 y,x,-z
7 -x,y,-z
8 -y,-x,-z
9 z,x,y
10 -x,z,y
11 -z,-x,y
12 x,-z,y
13 z,-x,-y
14 x,z,-y
15 -z,x,-y
16 -x,-z,-y
17 y,z,x
18 -z,-y,-x
19 -z,y,x
20 z,y,-x
21 z,-y,x
22 y,-z,-x
23 -y,-z,x
24 -y,z,-x
_cell_length_a 18.6080(2)
_cell_length_b 18.6080(2)
_cell_length_c 18.6080(2)
_cell_angle_alpha 90
_cell_angle_beta 90
_cell_angle_gamma 90
_cell_formula_units_Z 8
loop_
_atom_type_symbol
_atom_type_radius_bond
C 0.68
H 0.23
Br 1.21
N 0.68
O 0.68
loop_
_atom_site_label
_atom_site_type_symbol
_atom_site_fract_x
_atom_site_fract_y
_atom_site_fract_z
Br1 Br 0.26833(2) 0.047485(19) 0.12363(2)
O1 O 0.5067(2) 0.2059(3) 0.0899(3)
O2 O 0.5030(2) 0.3200(3) 0.0836(3)
N1 N 0.4743(2) 0.2627(3) 0.0937(3)
C1 C 0.12000 0.12000 0.12000
H1 H 0.13740 0.12160 0.07090
C2 C 0.16400 0.16400 0.16400
C3 C 0.24614(17) 0.13906(18) 0.17333(19)
C4 C 0.29237(19) 0.19834(18) 0.14134(18)
C5 C 0.3654(2) 0.1981(2) 0.1305(2)
H2 H 0.39310 0.15680 0.13980
C6 C 0.3965(2) 0.2603(2) 0.1056(3)
C7 C 0.3574(2) 0.3224(2) 0.0923(2)
H3 H 0.38070 0.36450 0.07720
C8 C 0.2842(2) 0.3215(2) 0.1013(2)
H4 H 0.25660 0.36260 0.09120
C9 C 0.2517(2) 0.2586(2) 0.12556(18)
Br1H Br 0.12363(2) 0.268330(19) 0.047485(20)
Br1P Br 0.047485(20) 0.123630(19) 0.26833(2)
O1H O 0.0899(2) 0.5067(3) 0.2059(3)
O1P O 0.2059(2) 0.0899(3) 0.5067(3)
O2H O 0.0836(2) 0.5030(3) 0.3200(3)
O2P O 0.3200(2) 0.0836(3) 0.5030(3)
N1H N 0.0937(2) 0.4743(3) 0.2627(3)
N1P N 0.2627(2) 0.0937(3) 0.4743(3)
H1H H 0.07090 0.13740 0.12160
H1P H 0.12160 0.07090 0.13740
C3H C 0.17333(17) 0.24614(18) 0.13906(19)
C3P C 0.13906(17) 0.17333(18) 0.24614(19)
C4H C 0.14134(19) 0.29237(18) 0.19834(18)
C4P C 0.19834(19) 0.14134(18) 0.29237(18)
C5H C 0.1305(2) 0.3654(2) 0.1981(2)
C5P C 0.1981(2) 0.1305(2) 0.3654(2)
H2H H 0.13980 0.39310 0.15680
H2P H 0.15680 0.13980 0.39310
C6H C 0.1056(2) 0.3965(2) 0.2603(3)
C6P C 0.2603(2) 0.1056(2) 0.3965(3)
C7H C 0.0923(2) 0.3574(2) 0.3224(2)
C7P C 0.3224(2) 0.0923(2) 0.3574(2)
H3H H 0.07720 0.38070 0.36450
H3P H 0.36450 0.07720 0.38070
C8H C 0.1013(2) 0.2842(2) 0.3215(2)
C8P C 0.3215(2) 0.1013(2) 0.2842(2)
H4H H 0.09120 0.25660 0.36260
H4P H 0.36260 0.09120 0.25660
C9H C 0.12556(20) 0.2517(2) 0.25860(18)
C9P C 0.2586(2) 0.12556(20) 0.25170(18)
#END
