
#######################################################################
#
#                 Cambridge Crystallographic Data Centre
#                                CCDC
#
#######################################################################
#
# If this CIF has been generated from an entry in the Cambridge
# Structural Database, then it will include bibliographic, chemical,
# crystal, experimental, refinement or atomic coordinate data resulting
# from the CCDC's data processing and validation procedures.
#
#######################################################################

data_CSD_CIF_ZZZWMY02
_audit_creation_date 2021-11-05
_audit_creation_method CSD-ConQuest-V1
_database_code_CSD ZZZWMY02
_database_code_depnum_ccdc_archive 'CCDC 2036838'
_chemical_formula_sum 'C21 H21 Cl2 Sb1'
_chemical_formula_moiety
;
C21 H21 Cl2 Sb1
;
_journal_coden_Cambridge 1078
_journal_year 2021
_journal_name_full 'CSD Communication(Private Communication) '
loop_
_publ_author_name
"M.Matsumura"
"Y.Kitamura"
"Shuji Yasuike"
_chemical_name_systematic
;
dichloro-tris(p-tolyl)-antimony
;
_cell_volume   2005.748
_exptl_crystal_colour 'colorless'
_exptl_crystal_density_diffrn 1.543
_exptl_crystal_description 'prism'
_diffrn_ambient_temperature 103
#These two values have been output from a single CSD field.
_refine_ls_R_factor_gt 0.0218
_refine_ls_wR_factor_gt 0.0218
_symmetry_cell_setting cubic
_symmetry_space_group_name_H-M 'P 43 3 2'
_symmetry_Int_Tables_number 212
loop_
_symmetry_equiv_pos_site_id
_symmetry_equiv_pos_as_xyz
1 x,y,z
2 1/2-x,-y,1/2+z
3 -x,1/2+y,1/2-z
4 1/2+x,1/2-y,-z
5 z,x,y
6 1/2+z,1/2-x,-y
7 1/2-z,-x,1/2+y
8 -z,1/2+x,1/2-y
9 y,z,x
10 -y,1/2+z,1/2-x
11 1/2+y,1/2-z,-x
12 1/2-y,-z,1/2+x
13 1/4+y,3/4+x,3/4-z
14 1/4-y,1/4-x,1/4-z
15 3/4+y,3/4-x,1/4+z
16 3/4-y,1/4+x,3/4+z
17 1/4+x,3/4+z,3/4-y
18 3/4-x,1/4+z,3/4+y
19 1/4-x,1/4-z,1/4-y
20 3/4+x,3/4-z,1/4+y
21 1/4+z,3/4+y,3/4-x
22 3/4+z,3/4-y,1/4+x
23 3/4-z,1/4+y,3/4+x
24 1/4-z,1/4-y,1/4-x
_cell_length_a 12.61127(15)
_cell_length_b 12.61127(15)
_cell_length_c 12.61127(15)
_cell_angle_alpha 90
_cell_angle_beta 90
_cell_angle_gamma 90
_cell_formula_units_Z 4
loop_
_atom_type_symbol
_atom_type_radius_bond
C 0.68
H 0.23
Cl 0.99
Sb 1.39
loop_
_atom_site_label
_atom_site_type_symbol
_atom_site_fract_x
_atom_site_fract_y
_atom_site_fract_z
Sb1 Sb 0.87500 0.62500 0.37500
Cl1 Cl 0.98813(6) 0.51187(6) 0.48813(6)
C1 C 0.7571(3) 0.5071(3) 0.37500
C2 C 0.7214(3) 0.4649(3) 0.4692(3)
H1 H 0.75052 0.48768 0.53302
C3 C 0.6423(3) 0.3886(3) 0.4693(3)
H2 H 0.61691 0.36263 0.53346
C4 C 0.6006(3) 0.3506(3) 0.37500
C5 C 0.5157(3) 0.2657(3) 0.37500
H3? H 0.46260 0.28287 0.42679
H4? H 0.48359 0.26188 0.30608
H5? H 0.54702 0.19845 0.39213
C2L C 0.7149(3) 0.4714(3) 0.2808(3)
H1L H 0.73768 0.50052 0.21698
C3L C 0.6386(3) 0.3923(3) 0.2807(3)
H2L H 0.61263 0.36691 0.21654
C1E C 0.8750(3) 0.7429(3) 0.49290
C2E C 0.9692(3) 0.7786(3) 0.5351(3)
H1E H 1.03302 0.74948 0.51232
C3E C 0.9693(3) 0.8577(3) 0.6114(3)
H2E H 1.03346 0.88309 0.63737
C4E C 0.8750(3) 0.8994(3) 0.64940
C5E C 0.8750(3) 0.9843(3) 0.73430
C2W C 0.7808(3) 0.7851(3) 0.5286(3)
H1W H 0.71698 0.76232 0.49948
C3W C 0.7807(3) 0.8614(3) 0.6077(3)
H2W H 0.71654 0.88737 0.63309
C1K C 0.9929(3) 0.6250(3) 0.25710
C2K C 1.0351(3) 0.5308(3) 0.2214(3)
H1K H 1.01232 0.46698 0.25052
C3K C 1.1114(3) 0.5307(3) 0.1423(3)
H2K H 1.13737 0.46654 0.11691
C4K C 1.1494(3) 0.6250(3) 0.10060
C5K C 1.2343(3) 0.6250(3) 0.01570
C2Q C 1.0286(3) 0.7192(3) 0.2149(3)
H1Q H 0.99948 0.78302 0.23768
C3Q C 1.1077(3) 0.7193(3) 0.1386(3)
H2Q H 1.13309 0.78346 0.11263
Cl1L Cl 0.76187(6) 0.73813(6) 0.26187(6)
#END

data_CSD_CIF_ANTTFA
_audit_creation_date 1980-05-21
_audit_creation_method CSD-ConQuest-V1
_database_code_CSD ANTTFA
_chemical_formula_sum 'C6 F9 O6 Sb1'
_chemical_formula_moiety
;
C6 F9 O6 Sb1
;
_journal_coden_Cambridge 186
_journal_year 1980
_journal_page_first 105
_journal_name_full 'J.Chem.Soc.,Dalton Trans. '
loop_
_publ_author_name
"D.P.Bullivant"
"M.F.A.Dove"
"M.J.Haley"
_chemical_name_systematic
;
(R)-tris(Trifluoroacetato-O)-antimony(iii)
;
_chemical_melting_point 387.15
_cell_volume   2650.991
_exptl_crystal_colour 'colorless'
_exptl_crystal_density_diffrn 2.31
_exptl_special_details
;
Melting point range 387.15-390.15K
Absolute configuration
O1 y -0.1018, not -0.1108
;
_diffrn_ambient_temperature ?
_diffrn_special_details
;
The study was carried out at room temperature,in the range 283-303K

;
#These two values have been output from a single CSD field.
_refine_ls_R_factor_gt 0.0221
_refine_ls_wR_factor_gt 0.0221
_symmetry_cell_setting cubic
_symmetry_space_group_name_H-M 'P 43 3 2'
_symmetry_Int_Tables_number 212
loop_
_symmetry_equiv_pos_site_id
_symmetry_equiv_pos_as_xyz
1 x,y,z
2 z,x,y
3 y,z,x
4 3/4-y,1/4+x,3/4+z
5 3/4-x,1/4+z,3/4+y
6 3/4-z,1/4+y,3/4+x
7 1/2+x,1/2-y,-z
8 1/2+z,1/2-x,-y
9 1/2+y,1/2-z,-x
10 1/4-y,1/4-x,1/4-z
11 1/4-x,1/4-z,1/4-y
12 1/4-z,1/4-y,1/4-x
13 -x,1/2+y,1/2-z
14 -z,1/2+x,1/2-y
15 -y,1/2+z,1/2-x
16 1/4+y,3/4+x,3/4-z
17 1/4+x,3/4+z,3/4-y
18 1/4+z,3/4+y,3/4-x
19 1/2-x,-y,1/2+z
20 1/2-z,-x,1/2+y
21 1/2-y,-z,1/2+x
22 3/4+y,3/4-x,1/4+z
23 3/4+x,3/4-z,1/4+y
24 3/4+z,3/4-y,1/4+x
_cell_length_a 13.840(3)
_cell_length_b 13.840(3)
_cell_length_c 13.840(3)
_cell_angle_alpha 90
_cell_angle_beta 90
_cell_angle_gamma 90
_cell_formula_units_Z 8
loop_
_atom_type_symbol
_atom_type_radius_bond
C 0.68
F 0.64
O 0.68
Sb 1.46
loop_
_atom_site_label
_atom_site_type_symbol
_atom_site_fract_x
_atom_site_fract_y
_atom_site_fract_z
Sb1 Sb -0.06949 -0.06949 -0.06949
O1 O -0.00660 -0.10180 0.06010
O2 O 0.07020 -0.21500 -0.02190
C1 C 0.05070 -0.17410 0.05120
C2 C 0.09260 -0.20840 0.14830
F1 F 0.16660 -0.26350 0.13530
F2 F 0.11720 -0.13610 0.20450
F3 F 0.02600 -0.25810 0.19370
O1A O 0.06010 -0.00660 -0.10180
O1B O -0.10180 0.06010 -0.00660
C1A C 0.05120 0.05070 -0.17410
C1B C -0.17410 0.05120 0.05070
O2A O -0.02190 0.07020 -0.21500
C2A C 0.14830 0.09260 -0.20840
O2B O -0.21500 -0.02190 0.07020
C2B C -0.20840 0.14830 0.09260
F1A F 0.13530 0.16660 -0.26350
F2A F 0.20450 0.11720 -0.13610
F3A F 0.19370 0.02600 -0.25810
F1B F -0.26350 0.13530 0.16660
F2B F -0.13610 0.20450 0.11720
F3B F -0.25810 0.19370 0.02600
#END

data_CSD_CIF_EWEPAA
_audit_creation_date 2021-06-24
_audit_creation_method CSD-ConQuest-V1
_database_code_CSD EWEPAA
_database_code_depnum_ccdc_archive 'CCDC 2043342'
_chemical_formula_sum 'C18 H48 Ag3 N6 O12 Rh2 S6'
_chemical_formula_moiety
;
C12 H36 Ag3 N6 Rh2 S6 3+,1.5(C4 H4 O6 2-),3(H2 O1)
;
_journal_coden_Cambridge 1220
_journal_volume 32
_journal_year 2021
_journal_page_first 8358
_journal_name_full 'Chem.-Eur.J. '
loop_
_publ_author_name
"M.Uno"
"T.Kojima"
"N.Kuwamura"
"N.Yoshinari"
"T.Konno"
_chemical_name_systematic
;
hexakis(\m-2-aminoethane-1-thiolato)-di-rhodium(iii)-tri-silver(i) 
sesquikis(2,3-dihydroxybutanedioate) trihydrate
;
_chemical_name_common
;
hexakis(mu-2-aminoethane-1-thiolato)-di-rhodium(iii)-tri-silver(i) 
sesquikis((S,S)-tartarate) trihydrate
;
_cell_volume   7226.669
_exptl_crystal_colour 'yellow'
_exptl_special_details
;
Absolute configuration

;
_exptl_crystal_description 'block'
_diffrn_ambient_temperature 100
_diffrn_radiation_probe x-ray
_diffrn_source synchrotron
#These two values have been output from a single CSD field.
_refine_ls_R_factor_gt 0.0255
_refine_ls_wR_factor_gt 0.0255
loop_
_citation_database_id_CSD
_citation_special_details
EWEPEE "is a stereoisomer of this entry"
_symmetry_cell_setting cubic
_symmetry_space_group_name_H-M 'P 43 3 2'
_symmetry_Int_Tables_number 212
loop_
_symmetry_equiv_pos_site_id
_symmetry_equiv_pos_as_xyz
1 x,y,z
2 y,z,x
3 z,x,y
4 3/4-y,1/4+x,3/4+z
5 3/4-z,1/4+y,3/4+x
6 3/4-x,1/4+z,3/4+y
7 1/2-x,-y,1/2+z
8 -z,1/2+x,1/2-y
9 -x,1/2+y,1/2-z
10 1/2-y,-z,1/2+x
11 1/2-z,-x,1/2+y
12 3/4+y,3/4-x,1/4+z
13 3/4+z,3/4-y,1/4+x
14 3/4+x,3/4-z,1/4+y
15 -y,1/2+z,1/2-x
16 1/4-z,1/4-y,1/4-x
17 1/4-x,1/4-z,1/4-y
18 1/4-y,1/4-x,1/4-z
19 1/2+y,1/2-z,-x
20 1/4+y,3/4+x,3/4-z
21 1/4+z,3/4+y,3/4-x
22 1/4+x,3/4+z,3/4-y
23 1/2+x,1/2-y,-z
24 1/2+z,1/2-x,-y
_cell_length_a 19.3336(18)
_cell_length_b 19.3336(18)
_cell_length_c 19.3336(18)
_cell_angle_alpha 90
_cell_angle_beta 90
_cell_angle_gamma 90
_cell_formula_units_Z 8
loop_
_atom_type_symbol
_atom_type_radius_bond
C 0.68
H 0.23
Ag 1.45
N 0.68
O 0.68
Rh 1.42
S 1.02
loop_
_atom_site_label
_atom_site_type_symbol
_atom_site_fract_x
_atom_site_fract_y
_atom_site_fract_z
S1 S 0.44390(7) 0.34508(6) 0.48479(6)
C1 C 0.5838(3) 0.3677(3) 0.4797(3)
H1 H 0.63026 0.35881 0.49930
H2 H 0.58466 0.35524 0.43008
C2 C 0.5311(3) 0.3244(3) 0.5167(3)
H3 H 0.53368 0.33342 0.56700
H4 H 0.54105 0.27479 0.50879
N1 N 0.5661(2) 0.4420(2) 0.4875(2)
H5 H 0.59412 0.46749 0.45958
H6 H 0.57425 0.45517 0.53199
S2 S 0.38561(7) 0.25974(7) 0.26205(7)
C3 C 0.3347(4) 0.1305(3) 0.2885(4)
H7 H 0.33756 0.07992 0.28086
H8 H 0.33803 0.13924 0.33879
C4 C 0.3932(3) 0.1656(3) 0.2520(4)
H9 H 0.39245 0.15338 0.20231
H10 H 0.43779 0.14968 0.27168
N2 N 0.2680(3) 0.1564(2) 0.2624(3)
H11 H 0.23312 0.13914 0.28883
H12 H 0.26162 0.14152 0.21824
Ag1 Ag 0.42610(2) 0.29228(2) 0.37422(2)
Rh1 Rh 0.46267(2) 0.46267(2) 0.46267(2)
Rh2 Rh 0.26474(2) 0.26474(2) 0.26474(2)
C5 C 0.1744(4) -0.0559(4) 0.1639(4)
C6 C 0.2337(6) -0.0018(4) 0.1603(5)
H13 H 0.21729 0.04119 0.18382
O1 O 0.1203(3) -0.0371(4) 0.1335(3)
O2 O 0.1856(3) -0.1085(3) 0.1965(4)
O3 O 0.2955(4) -0.0232(4) 0.1934(4)
H14 H 0.28622 -0.03734 0.23348
O4 O 0.4146(5) 0.2079(5) 0.0446(8)
S1A S 0.34508(7) 0.48479(6) 0.44390(6)
C1A C 0.3677(3) 0.4797(3) 0.5838(3)
H1A H 0.35881 0.49930 0.63026
H2A H 0.35524 0.43008 0.58466
C2A C 0.3244(3) 0.5167(3) 0.5311(3)
H3A H 0.33342 0.56700 0.53368
H4A H 0.27479 0.50879 0.54105
N1A N 0.4420(2) 0.4875(2) 0.5661(2)
H5A H 0.46749 0.45958 0.59412
H6A H 0.45517 0.53199 0.57425
S2A S 0.25974(7) 0.26205(7) 0.38561(7)
C3A C 0.1305(4) 0.2885(3) 0.3347(4)
H7A H 0.07992 0.28086 0.33756
H8A H 0.13924 0.33879 0.33803
C4A C 0.1656(3) 0.2520(3) 0.3932(4)
H9A H 0.15338 0.20231 0.39245
H10A H 0.14968 0.27168 0.43779
N2A N 0.1564(3) 0.2624(2) 0.2680(3)
H11A H 0.13914 0.28883 0.23312
H12A H 0.14152 0.21824 0.26162
Ag1A Ag 0.29228(2) 0.37422(2) 0.42610(2)
S1B S 0.48479(7) 0.44390(6) 0.34508(6)
C1B C 0.4797(3) 0.5838(3) 0.3677(3)
H1B H 0.49930 0.63026 0.35881
H2B H 0.43008 0.58466 0.35524
C2B C 0.5167(3) 0.5311(3) 0.3244(3)
H3B H 0.56700 0.53368 0.33342
H4B H 0.50879 0.54105 0.27479
N1B N 0.4875(2) 0.5661(2) 0.4420(2)
H5B H 0.45958 0.59412 0.46749
H6B H 0.53199 0.57425 0.45517
S2B S 0.26205(7) 0.38561(7) 0.25974(7)
C3B C 0.2885(4) 0.3347(3) 0.1305(4)
H7B H 0.28086 0.33756 0.07992
H8B H 0.33879 0.33803 0.13924
C4B C 0.2520(3) 0.3932(3) 0.1656(4)
H9B H 0.20231 0.39245 0.15338
H10B H 0.27168 0.43779 0.14968
N2B N 0.2624(3) 0.2680(2) 0.1564(3)
H11B H 0.28883 0.23312 0.13914
H12B H 0.21824 0.26162 0.14152
Ag1B Ag 0.37422(2) 0.42610(2) 0.29228(2)
C5Q C 0.3059(4) 0.0756(4) 0.0861(4)
C6Q C 0.2518(6) 0.0163(4) 0.0897(5)
H13Q H 0.20881 0.03271 0.06618
O1Q O 0.2871(3) 0.1297(4) 0.1165(3)
O2Q O 0.3585(3) 0.0644(3) 0.0535(4)
O3Q O 0.2732(4) -0.0455(4) 0.0566(4)
H14Q H 0.28734 -0.03622 0.01652
#END

data_CSD_CIF_EWEPOO
_audit_creation_date 2021-06-24
_audit_creation_method CSD-ConQuest-V1
_database_code_CSD EWEPOO
_database_code_depnum_ccdc_archive 'CCDC 2043345'
_chemical_formula_sum 'C36 H96 Ag6 Co4 N12 O24 S12'
_chemical_formula_moiety
;
2(C12 H36 Ag3 Co2 N6 S6 3+),3(C4 H4 O6 2-),6(H2 O1)
;
_journal_coden_Cambridge 1220
_journal_volume 32
_journal_year 2021
_journal_page_first 8358
_journal_name_full 'Chem.-Eur.J. '
loop_
_publ_author_name
"M.Uno"
"T.Kojima"
"N.Kuwamura"
"N.Yoshinari"
"T.Konno"
_chemical_name_systematic
;
bis(hexakis(\m-2-aminoethane-1-thiolato)-di-cobalt-tri-silver) 
tris(2,3-dihydroxybutanedioate) hexahydrate
;
_cell_volume   7158.036
_exptl_crystal_colour 'dark purple'
_exptl_crystal_density_diffrn 2.168
_exptl_special_details
;
Absolute configuration

;
_exptl_crystal_description 'block'
_diffrn_ambient_temperature 200
#These two values have been output from a single CSD field.
_refine_ls_R_factor_gt 0.036
_refine_ls_wR_factor_gt 0.036
_symmetry_cell_setting cubic
_symmetry_space_group_name_H-M 'P 43 3 2'
_symmetry_Int_Tables_number 212
loop_
_symmetry_equiv_pos_site_id
_symmetry_equiv_pos_as_xyz
1 x,y,z
2 3/4+x,3/4-z,1/4+y
3 1/4+x,3/4+z,3/4-y
4 1/4+z,3/4+y,3/4-x
5 1/2+y,1/2-z,-x
6 -z,1/2+x,1/2-y
7 3/4+z,3/4-y,1/4+x
8 3/4+y,3/4-x,1/4+z
9 1/2-z,-x,1/2+y
10 1/2+x,1/2-y,-z
11 3/4-y,1/4+x,3/4+z
12 3/4-x,1/4+z,3/4+y
13 -x,1/2+y,1/2-z
14 1/2-y,-z,1/2+x
15 1/2-x,-y,1/2+z
16 1/4-y,1/4-x,1/4-z
17 -y,1/2+z,1/2-x
18 1/4-x,1/4-z,1/4-y
19 1/4-z,1/4-y,1/4-x
20 1/2+z,1/2-x,-y
21 z,x,y
22 1/4+y,3/4+x,3/4-z
23 y,z,x
24 3/4-z,1/4+y,3/4+x
_cell_length_a 19.2722(4)
_cell_length_b 19.2722(4)
_cell_length_c 19.2722(4)
_cell_angle_alpha 90
_cell_angle_beta 90
_cell_angle_gamma 90
_cell_formula_units_Z 4
loop_
_atom_type_symbol
_atom_type_radius_bond
C 0.68
H 0.23
Ag 1.45
Co 1.26
N 0.68
O 0.68
S 1.02
loop_
_atom_site_label
_atom_site_type_symbol
_atom_site_fract_x
_atom_site_fract_y
_atom_site_fract_z
Ag1 Ag 0.42434(3) 0.29326(3) 0.37497(3)
Co1 Co 0.46309(4) 0.46309(4) 0.46309(4)
Co2 Co 0.26440(5) 0.26440(5) 0.26440(5)
S1 S 0.44262(9) 0.34886(9) 0.48478(9)
N1 N 0.5618(3) 0.4435(3) 0.4870(3)
H1 H 0.58956 0.46927 0.45877
H2 H 0.56965 0.45755 0.53139
C1 C 0.5821(4) 0.3696(4) 0.4806(4)
H3 H 0.62829 0.36218 0.50184
H4 H 0.58477 0.35633 0.43106
C2 C 0.5289(4) 0.3260(4) 0.5169(4)
H5 H 0.53137 0.33407 0.56758
H6 H 0.53819 0.27623 0.50808
S2 S 0.38225(9) 0.25994(10) 0.2630(1)
N2 N 0.2662(3) 0.1613(3) 0.2629(4)
H7 H 0.23060 0.14503 0.28933
H8 H 0.25907 0.14655 0.21861
C3 C 0.3320(5) 0.1312(4) 0.2887(5)
H9 H 0.3354(5) 0.1380(6) 0.337(3)
H10 H 0.3328(5) 0.084(3) 0.2800(7)
C4 C 0.3908(4) 0.1649(4) 0.2536(6)
H11 H 0.39105 0.15223 0.20381
H12 H 0.43501 0.14918 0.27448
C5 C 0.1739(5) -0.0565(5) 0.1633(5)
C6 C 0.2348(9) -0.0030(6) 0.1572(6)
H13 H 0.21907 0.04038 0.18101
O1 O 0.1213(4) -0.0370(7) 0.1333(4)
O2 O 0.1855(4) -0.1086(4) 0.1963(6)
O3 O 0.2975(5) -0.0242(5) 0.1909(6)
H14 H 0.28879 -0.03564 0.23201
O4 O 0.4149(6) 0.2072(6) 0.0442(8)
Ag1T Ag 0.37497(3) 0.42434(3) 0.29326(3)
S1T S 0.48478(9) 0.44262(9) 0.34886(9)
N1T N 0.4870(3) 0.5618(3) 0.4435(3)
H1T H 0.45877 0.58956 0.46927
H2T H 0.53139 0.56965 0.45755
C1T C 0.4806(4) 0.5821(4) 0.3696(4)
H3T H 0.50184 0.62829 0.36218
H4T H 0.43106 0.58477 0.35633
C2T C 0.5169(4) 0.5289(4) 0.3260(4)
H5T H 0.56758 0.53137 0.33407
H6T H 0.50808 0.53819 0.27623
S2T S 0.26300(9) 0.38225(10) 0.25994(10)
N2T N 0.2629(3) 0.2662(3) 0.1613(4)
H7T H 0.28933 0.23060 0.14503
H8T H 0.21861 0.25907 0.14655
C3T C 0.2887(5) 0.3320(4) 0.1312(5)
H9T H 0.3370(5) 0.3354(6) 0.138(3)
H10T H 0.2800(5) 0.3328(30) 0.0840(7)
C4T C 0.2536(4) 0.3908(4) 0.1649(6)
H11T H 0.20381 0.39105 0.15223
H12T H 0.27448 0.43501 0.14918
Ag1V Ag 0.29326(3) 0.37497(3) 0.42434(3)
S1V S 0.34886(9) 0.48478(9) 0.44262(9)
N1V N 0.4435(3) 0.4870(3) 0.5618(3)
H1V H 0.46927 0.45877 0.58956
H2V H 0.45755 0.53139 0.56965
C1V C 0.3696(4) 0.4806(4) 0.5821(4)
H3V H 0.36218 0.50184 0.62829
H4V H 0.35633 0.43106 0.58477
C2V C 0.3260(4) 0.5169(4) 0.5289(4)
H5V H 0.33407 0.56758 0.53137
H6V H 0.27623 0.50808 0.53819
S2V S 0.25994(9) 0.2630(1) 0.38225(10)
N2V N 0.1613(3) 0.2629(3) 0.2662(4)
H7V H 0.14503 0.28933 0.23060
H8V H 0.14655 0.21861 0.25907
C3V C 0.1312(5) 0.2887(4) 0.3320(5)
H9V H 0.1380(5) 0.3370(6) 0.3354(30)
H10V H 0.0840(5) 0.280(3) 0.3328(7)
C4V C 0.1649(4) 0.2536(4) 0.3908(6)
H11V H 0.15223 0.20381 0.39105
H12V H 0.14918 0.27448 0.43501
C5O C 0.3065(5) 0.0761(5) 0.0867(5)
C6O C 0.2530(9) 0.0152(6) 0.0928(6)
H13O H 0.20962 0.03093 0.06899
O1O O 0.2870(4) 0.1287(7) 0.1167(4)
O2O O 0.3586(4) 0.0645(4) 0.0537(6)
O3O O 0.2742(5) -0.0475(5) 0.0591(6)
H14O H 0.28564 -0.03879 0.01799
#END

data_CSD_CIF_GUANSL02
_audit_creation_date 2021-02-02
_audit_creation_method CSD-ConQuest-V1
_database_code_CSD GUANSL02
_database_code_depnum_ccdc_archive 'CCDC 2012777'
_chemical_formula_sum 'C2 H12 N6 O4 S1'
_chemical_formula_moiety
;
2(C1 H6 N3 1+),O4 S1 2-
;
_journal_coden_Cambridge 1350
_journal_volume 23
_journal_year 2021
_journal_page_first 1643
_journal_name_full 'CrystEngComm '
loop_
_publ_author_name
"B.R.Brummel"
"K.G.Lee"
"J.W.Kolis"
"D.C.Whitehead"
"C.D.McMillen"
_chemical_name_systematic
;
bis(guanidinium) sulfate
;
_cell_volume   5665.741
_exptl_crystal_colour 'colorless'
_exptl_crystal_density_diffrn 1.268
_exptl_special_details
;
Absolute configuration

;
_exptl_crystal_description 'block'
_diffrn_ambient_temperature 100
#These two values have been output from a single CSD field.
_refine_ls_R_factor_gt 0.0371
_refine_ls_wR_factor_gt 0.0371
_symmetry_cell_setting cubic
_symmetry_space_group_name_H-M 'P 43 3 2'
_symmetry_Int_Tables_number 212
loop_
_symmetry_equiv_pos_site_id
_symmetry_equiv_pos_as_xyz
1 x,y,z
2 1/2-x,-y,1/2+z
3 -x,1/2+y,1/2-z
4 1/2+x,1/2-y,-z
5 z,x,y
6 1/2+z,1/2-x,-y
7 1/2-z,-x,1/2+y
8 -z,1/2+x,1/2-y
9 y,z,x
10 -y,1/2+z,1/2-x
11 1/2+y,1/2-z,-x
12 1/2-y,-z,1/2+x
13 1/4+y,3/4+x,3/4-z
14 1/4-y,1/4-x,1/4-z
15 3/4+y,3/4-x,1/4+z
16 3/4-y,1/4+x,3/4+z
17 1/4+x,3/4+z,3/4-y
18 3/4-x,1/4+z,3/4+y
19 1/4-x,1/4-z,1/4-y
20 3/4+x,3/4-z,1/4+y
21 1/4+z,3/4+y,3/4-x
22 3/4+z,3/4-y,1/4+x
23 3/4-z,1/4+y,3/4+x
24 1/4-z,1/4-y,1/4-x
_cell_length_a 17.8273(6)
_cell_length_b 17.8273(6)
_cell_length_c 17.8273(6)
_cell_angle_alpha 90
_cell_angle_beta 90
_cell_angle_gamma 90
_cell_formula_units_Z 20
loop_
_atom_type_symbol
_atom_type_radius_bond
C 0.68
H 0.23
N 0.68
O 0.68
S 1.02
loop_
_atom_site_label
_atom_site_type_symbol
_atom_site_fract_x
_atom_site_fract_y
_atom_site_fract_z
S1 S 0.44481(4) 0.44481(4) 0.44481(4)
O1 O 0.48507(13) 0.42638(12) 0.37455(13)
O2 O 0.49290(12) 0.49290(12) 0.49290(12)
S2 S 0.29748(4) 0.04748(4) 0.37500
O3 O 0.28141(13) -0.00453(13) 0.31210(13)
O4 O 0.37575(12) 0.03741(12) 0.40058(13)
N1 N 0.12500 -0.07272(16) 0.32272(16)
H1 H 0.09009 -0.07272 0.28781
C1 C 0.12500 -0.12500 0.37500
N2 N 0.35108(17) -0.14890(17) 0.31965(19)
H2 H 0.336(3) -0.1027(19) 0.319(3)
H3 H 0.331(3) -0.186(3) 0.299(3)
N3 N 0.44375(19) -0.11121(18) 0.4008(2)
H4 H 0.416(2) -0.076(2) 0.411(3)
H5 H 0.486(2) -0.115(3) 0.424(3)
N4 N 0.4407(2) -0.23303(18) 0.3580(2)
H6 H 0.471(2) -0.248(3) 0.396(2)
H7 H 0.425(3) -0.265(3) 0.326(2)
C2 C 0.4114(2) -0.16444(19) 0.3599(2)
N5 N 0.48353(19) 0.14913(18) 0.3496(2)
H8 H 0.525(3) 0.143(3) 0.332(3)
H9 H 0.448(3) 0.115(3) 0.350(3)
N6 N 0.51994(17) 0.26994(17) 0.37500
H10 H 0.56521 0.25958 0.35825
C3 C 0.46774(19) 0.21774(19) 0.37500
O1D O 0.37455(13) 0.48507(12) 0.42638(13)
O1H O 0.42638(13) 0.37455(12) 0.48507(13)
O3L O 0.24547(13) 0.03141(13) 0.43790(13)
O4L O 0.28741(12) 0.12575(12) 0.34942(13)
N1F N 0.17728 -0.12500(16) 0.42728(16)
H1F H 0.21219 -0.09009 0.42728
N1I N 0.07272 -0.17728(16) 0.37500(16)
H1I H 0.07272 -0.21219 0.40991
H1L H 0.17728 -0.15991 0.46219
H1R H 0.15991 -0.03781 0.32272
H1U H 0.03781 -0.17728 0.34009
N5L N 0.39913(19) 0.23353(18) 0.4004(2)
H8L H 0.393(3) 0.275(3) 0.418(3)
H9L H 0.365(3) 0.198(3) 0.400(3)
H10L H 0.50958 0.31521 0.39175
#END

data_CSD_CIF_NIRQOU
_audit_creation_date 1998-06-02
_audit_creation_method CSD-ConQuest-V1
_database_code_CSD NIRQOU
_database_code_depnum_ccdc_archive 'CCDC 1220695'
_database_code_depnum_ccdc_fiz 'CSD 402454'
_chemical_formula_sum 'C12 Fe2 K5 Na1 O24'
_chemical_formula_moiety
;
2(C6 Fe1 O12 3-),5(K1 1+),Na1 1+
;
_journal_coden_Cambridge 643
_journal_volume 212
_journal_year 1997
_journal_page_first 57
_journal_name_full 'Z.Krist.Cryst.Mater. '
loop_
_publ_author_name
"R.Wartchow"
_chemical_name_systematic
;
Penta-potassium sodium \L-bis(tris(oxalato)-iron(iii))
;
_cell_volume   2480.111
_exptl_crystal_colour 'green'
_exptl_special_details
;
Absolute configuration

;
_exptl_crystal_description 'irregular'
_diffrn_ambient_temperature ?
_diffrn_special_details
;
The study was carried out at room temperature,in the range 283-303K

;
#These two values have been output from a single CSD field.
_refine_ls_R_factor_gt 0.0283
_refine_ls_wR_factor_gt 0.0283
loop_
_citation_database_id_CSD
_citation_special_details
RORRAR "is a stereoisomer of this entry"
_symmetry_cell_setting cubic
_symmetry_space_group_name_H-M 'P 43 3 2'
_symmetry_Int_Tables_number 212
loop_
_symmetry_equiv_pos_site_id
_symmetry_equiv_pos_as_xyz
1 x,y,z
2 3/4-y,1/4+x,3/4+z
3 1/2+x,1/2-y,-z
4 z,x,y
5 1/2-x,-y,1/2+z
6 1/4+y,3/4+x,3/4-z
7 3/4-x,1/4+z,3/4+y
8 3/4+y,3/4-x,1/4+z
9 -x,1/2+y,1/2-z
10 1/2-z,-x,1/2+y
11 1/4-y,1/4-x,1/4-z
12 3/4+x,3/4-z,1/4+y
13 1/2+z,1/2-x,-y
14 1/4-x,1/4-z,1/4-y
15 -z,1/2+x,1/2-y
16 1/4+x,3/4+z,3/4-y
17 y,z,x
18 3/4-z,1/4+y,3/4+x
19 1/4+z,3/4+y,3/4-x
20 1/2+y,1/2-z,-x
21 1/4-z,1/4-y,1/4-x
22 -y,1/2+z,1/2-x
23 1/2-y,-z,1/2+x
24 3/4+z,3/4-y,1/4+x
_cell_length_a 13.536(3)
_cell_length_b 13.536(3)
_cell_length_c 13.536(3)
_cell_angle_alpha 90
_cell_angle_beta 90
_cell_angle_gamma 90
_cell_formula_units_Z 4
loop_
_atom_type_symbol
_atom_type_radius_bond
C 0.68
Fe 1.34
K 1.33
Na 0.97
O 0.68
loop_
_atom_site_label
_atom_site_type_symbol
_atom_site_fract_x
_atom_site_fract_y
_atom_site_fract_z
Fe1 Fe 0.98907(3) 0.98907(3) 0.98907(3)
C1 C 0.79358 1.05069 1.01997
C2 C 0.85881 1.13756 1.05791
O1 O 0.8424(2) 0.9743(2) 0.9960(2)
O2 O 0.7044(2) 1.0612(2) 1.0143(2)
O3 O 0.9524(2) 1.1224(2) 1.0459(2)
O4 O 0.8206(2) 1.2093(2) 1.0955(2)
K1 K 0.82915(8) 0.82915(8) 0.82915(8)
K2 K 0.87500 0.75693(6) 0.50693
Na1 Na 0.62500 0.62500 0.62500
O1C O 0.9960(2) 0.8424(2) 0.9743(2)
C1C C 1.01997 0.79358 1.05069
C2C C 1.05791 0.85881 1.13756
O3C O 1.0459(2) 0.9524(2) 1.1224(2)
O1P O 0.9743(2) 0.9960(2) 0.8424(2)
C1P C 1.05069 1.01997 0.79358
C2P C 1.13756 1.05791 0.85881
O3P O 1.1224(2) 1.0459(2) 0.9524(2)
O4P O 1.2093(2) 1.0955(2) 0.8206(2)
O2P O 1.0612(2) 1.0143(2) 0.7044(2)
O4C O 1.0955(2) 0.8206(2) 1.2093(2)
O2C O 1.0143(2) 0.7044(2) 1.0612(2)
#END

data_CSD_CIF_REYGIL
_audit_creation_date 1997-10-09
_audit_creation_method CSD-ConQuest-V1
_database_code_CSD REYGIL
_chemical_formula_sum 'C15 H15 Cl3 N3 O8 Os3 S2'
_chemical_formula_moiety
;
C15 H15 Cl3 N3 O8 Os3 S2
;
_journal_coden_Cambridge 233
_journal_volume 41
_journal_year 1996
_journal_page_first 759
_journal_name_full 'Zh.Neorg.Khim.(Russ.)(Russ.J.Inorg.Chem.) '
loop_
_publ_author_name
"A.N.Zhilyaev"
"S.B.Katser"
"T.A.Fomina"
_chemical_name_systematic
;
bis(\m~3~-Sulfato)-tris(\m~2~-chloro)-tris(pyridine-osmium)
;
_cell_volume   2437.483
_diffrn_ambient_temperature ?
_diffrn_special_details
;
The study was carried out at room temperature,in the range 283-303K

;
#These two values have been output from a single CSD field.
_refine_ls_R_factor_gt 0.021
_refine_ls_wR_factor_gt 0.021
_symmetry_cell_setting cubic
_symmetry_space_group_name_H-M 'P 43 3 2'
_symmetry_Int_Tables_number 212
loop_
_symmetry_equiv_pos_site_id
_symmetry_equiv_pos_as_xyz
1 x,y,z
2 3/4-y,1/4+x,3/4+z
3 1/2+x,1/2-y,-z
4 z,x,y
5 1/2-x,-y,1/2+z
6 1/4+y,3/4+x,3/4-z
7 3/4-x,1/4+z,3/4+y
8 3/4+y,3/4-x,1/4+z
9 -x,1/2+y,1/2-z
10 1/2-z,-x,1/2+y
11 1/4-y,1/4-x,1/4-z
12 3/4+x,3/4-z,1/4+y
13 1/2+z,1/2-x,-y
14 1/4-x,1/4-z,1/4-y
15 -z,1/2+x,1/2-y
16 1/4+x,3/4+z,3/4-y
17 y,z,x
18 3/4-z,1/4+y,3/4+x
19 1/4+z,3/4+y,3/4-x
20 1/2+y,1/2-z,-x
21 1/4-z,1/4-y,1/4-x
22 -y,1/2+z,1/2-x
23 1/2-y,-z,1/2+x
24 3/4+z,3/4-y,1/4+x
_cell_length_a 13.458(13)
_cell_length_b 13.458(13)
_cell_length_c 13.458(13)
_cell_angle_alpha 90
_cell_angle_beta 90
_cell_angle_gamma 90
_cell_formula_units_Z 4
loop_
_atom_type_symbol
_atom_type_radius_bond
C 0.68
Cl 0.99
N 0.68
O 0.68
Os 1.37
S 1.02
loop_
_atom_site_label
_atom_site_type_symbol
_atom_site_fract_x
_atom_site_fract_y
_atom_site_fract_z
Os1 Os 0.7015(1) 0.5485(1) 0.62500
S1 S 0.5122(1) 0.5122(1) 0.5122(1)
O1 O 0.4505(4) 0.4505(4) 0.4505(4)
O2 O 0.6094(3) 0.4618(3) 0.5348(3)
N1 N 0.8150(4) 0.4350(4) 0.62500
C1 C 0.9610(6) 0.2890(6) 0.62500
C2 C 0.9412(6) 0.3433(5) 0.7117(6)
C3 C 0.8645(5) 0.4152(5) 0.7117(6)
Cl1 Cl 0.7673(1) 0.62500 0.4827(1)
Os1C Os 0.6250(1) 0.7015(1) 0.54850
Os1P Os 0.5485(1) 0.6250(1) 0.70150
O2C O 0.5348(3) 0.6094(3) 0.4618(3)
O2T O 0.7152(3) 0.7882(3) 0.6406(3)
S1T S 0.7378(1) 0.7378(1) 0.7378(1)
O1T O 0.7995(4) 0.7995(4) 0.7995(4)
O2J O 0.7882(3) 0.6406(3) 0.7152(3)
C2J C 0.9067(6) 0.3088(5) 0.5383(6)
C3J C 0.8348(5) 0.3855(5) 0.5383(6)
N1C N 0.6250(4) 0.8150(4) 0.43500
C3C C 0.7117(5) 0.8645(5) 0.4152(6)
C2C C 0.7117(6) 0.9412(5) 0.3433(6)
C1C C 0.6250(6) 0.9610(6) 0.28900
C2T C 0.5383(6) 0.9067(5) 0.3088(6)
C3T C 0.5383(5) 0.8348(5) 0.3855(6)
Cl1C Cl 0.4827(1) 0.76730 0.6250(1)
O2P O 0.4618(3) 0.5348(3) 0.6094(3)
O2M O 0.6406(3) 0.7152(3) 0.7882(3)
N1P N 0.4350(4) 0.6250(4) 0.81500
C3P C 0.4152(5) 0.7117(5) 0.8645(6)
C2P C 0.3433(6) 0.7117(5) 0.9412(6)
C1P C 0.2890(6) 0.6250(6) 0.96100
C2M C 0.3088(6) 0.5383(5) 0.9067(6)
C3M C 0.3855(5) 0.5383(5) 0.8348(6)
Cl1P Cl 0.6250(1) 0.48270 0.7673(1)
#END

data_CSD_CIF_VIDTAG
_audit_creation_date 2018-06-09
_audit_creation_method CSD-ConQuest-V1
_database_code_CSD VIDTAG
_database_code_depnum_ccdc_archive 'CCDC 1563458'
_chemical_formula_sum 'C6 Fe1 Na0.5 O12 Rb2.5'
_chemical_formula_moiety
;
C6 Fe1 O12 3-,2.5(Rb1 1+),0.5(Na1 1+)
;
_journal_coeditor_code "hb7735"
_journal_coden_Cambridge 1828
_journal_volume 74
_journal_year 2018
_journal_page_first 905
_journal_name_full 'Acta Crystallogr.,Sect.E:Cryst.Commun. '
loop_
_publ_author_name
"O.E.Piro"
"G.A.Echeverria"
"E.J.Baran"
_chemical_name_systematic
;
hemi-sodium rubidium tris(oxalato)-iron(iii)
;
_cell_volume   2631.387
_exptl_crystal_colour 'green'
_exptl_crystal_density_diffrn 2.752
_exptl_special_details
;
Absolute configuration

;
_diffrn_ambient_temperature 297
#These two values have been output from a single CSD field.
_refine_ls_R_factor_gt 0.0345
_refine_ls_wR_factor_gt 0.0345
loop_
_citation_database_id_CSD
_citation_special_details
VIDTEK "is a stereoisomer of this entry"
_symmetry_cell_setting cubic
_symmetry_space_group_name_H-M 'P 43 3 2'
_symmetry_Int_Tables_number 212
loop_
_symmetry_equiv_pos_site_id
_symmetry_equiv_pos_as_xyz
1 x,y,z
2 1/2-x,-y,1/2+z
3 -x,1/2+y,1/2-z
4 1/2+x,1/2-y,-z
5 z,x,y
6 1/2+z,1/2-x,-y
7 1/2-z,-x,1/2+y
8 -z,1/2+x,1/2-y
9 y,z,x
10 -y,1/2+z,1/2-x
11 1/2+y,1/2-z,-x
12 1/2-y,-z,1/2+x
13 1/4+y,3/4+x,3/4-z
14 1/4-y,1/4-x,1/4-z
15 3/4+y,3/4-x,1/4+z
16 3/4-y,1/4+x,3/4+z
17 1/4+x,3/4+z,3/4-y
18 3/4-x,1/4+z,3/4+y
19 1/4-x,1/4-z,1/4-y
20 3/4+x,3/4-z,1/4+y
21 1/4+z,3/4+y,3/4-x
22 3/4+z,3/4-y,1/4+x
23 3/4-z,1/4+y,3/4+x
24 1/4-z,1/4-y,1/4-x
_cell_length_a 13.8058(4)
_cell_length_b 13.8058(4)
_cell_length_c 13.8058(4)
_cell_angle_alpha 90
_cell_angle_beta 90
_cell_angle_gamma 90
_cell_formula_units_Z 8
loop_
_atom_type_symbol
_atom_type_radius_bond
C 0.68
Fe 1.52
Na 1.66
O 0.68
Rb 2.20
loop_
_atom_site_label
_atom_site_type_symbol
_atom_site_fract_x
_atom_site_fract_y
_atom_site_fract_z
C1 C 0.3861(5) 0.8068(4) 0.3863(5)
C2 C 0.4510(5) 0.7715(5) 0.3027(5)
O1 O 0.2953(3) 0.7918(3) 0.3718(3)
O2 O 0.4203(3) 0.8466(3) 0.4566(3)
O3 O 0.4037(3) 0.7481(3) 0.2262(3)
O4 O 0.5380(3) 0.7665(4) 0.3119(3)
Fe1 Fe 0.26048(6) 0.73952(6) 0.23952(6)
Rb1 Rb 0.25612(5) 1.00612(5) 0.37500
Rb2 Rb 0.67150(6) 0.82850(6) 0.17150(6)
Na1 Na 0.37500 0.87500 0.62500
C1F C 0.1137(5) 0.6139(4) 0.3068(5)
C2F C 0.1973(5) 0.5490(5) 0.2715(5)
O1F O 0.1282(3) 0.7047(3) 0.2918(3)
O2F O 0.0434(3) 0.5797(3) 0.3466(3)
O3F O 0.2738(3) 0.5963(3) 0.2481(3)
O4F O 0.1881(3) 0.4620(4) 0.2665(3)
C1I C 0.1932(5) 0.8863(4) 0.1139(5)
C2I C 0.2285(5) 0.8027(5) 0.0490(5)
O1I O 0.2082(3) 0.8718(3) 0.2047(3)
O2I O 0.1534(3) 0.9566(3) 0.0797(3)
O3I O 0.2519(3) 0.7262(3) 0.0963(3)
O4I O 0.2335(3) 0.8119(4) -0.0380(3)
#END

data_CSD_CIF_WIBCUF02
_audit_creation_date 1996-06-03
_audit_creation_method CSD-ConQuest-V1
_database_code_CSD WIBCUF02
_chemical_formula_sum 'C18 H15 I2 Sb1'
_chemical_formula_moiety
;
C18 H15 I2 Sb1
;
_journal_coden_Cambridge 186
_journal_year 1995
_journal_page_first 2895
_journal_name_full 'J.Chem.Soc.,Dalton Trans. '
loop_
_publ_author_name
"L.-J.Baker"
"C.E.F.Rickard"
"M.J.Taylor"
_chemical_name_systematic
;
Di-iodo-triphenyl-antimony
;
_chemical_melting_point 418.15
_cell_volume   1890.525
_exptl_crystal_colour 'off-white'
_exptl_crystal_density_diffrn 2.132
_exptl_special_details
;
cubic polymorph
Isomorphous with the dibromo analogue

;
_diffrn_ambient_temperature ?
_diffrn_special_details
;
The study was carried out at room temperature,in the range 283-303K

;
#These two values have been output from a single CSD field.
_refine_ls_R_factor_gt 0.028
_refine_ls_wR_factor_gt 0.028
_symmetry_cell_setting cubic
_symmetry_space_group_name_H-M 'P 43 3 2'
_symmetry_Int_Tables_number 212
loop_
_symmetry_equiv_pos_site_id
_symmetry_equiv_pos_as_xyz
1 x,y,z
2 3/4-y,1/4+x,3/4+z
3 1/2+x,1/2-y,-z
4 z,x,y
5 1/2-x,-y,1/2+z
6 1/4+y,3/4+x,3/4-z
7 3/4-x,1/4+z,3/4+y
8 3/4+y,3/4-x,1/4+z
9 -x,1/2+y,1/2-z
10 1/2-z,-x,1/2+y
11 1/4-y,1/4-x,1/4-z
12 3/4+x,3/4-z,1/4+y
13 1/2+z,1/2-x,-y
14 1/4-x,1/4-z,1/4-y
15 -z,1/2+x,1/2-y
16 1/4+x,3/4+z,3/4-y
17 y,z,x
18 3/4-z,1/4+y,3/4+x
19 1/4+z,3/4+y,3/4-x
20 1/2+y,1/2-z,-x
21 1/4-z,1/4-y,1/4-x
22 -y,1/2+z,1/2-x
23 1/2-y,-z,1/2+x
24 3/4+z,3/4-y,1/4+x
_cell_length_a 12.365(3)
_cell_length_b 12.365(3)
_cell_length_c 12.365(3)
_cell_angle_alpha 90
_cell_angle_beta 90
_cell_angle_gamma 90
_cell_formula_units_Z 4
loop_
_atom_type_symbol
_atom_type_radius_bond
C 0.68
H 0.23
I 1.40
Sb 1.46
loop_
_atom_site_label
_atom_site_type_symbol
_atom_site_fract_x
_atom_site_fract_y
_atom_site_fract_z
Sb1 Sb 0.37500 0.12500 0.87500
I1 I 0.5097(1) -0.0097(1) 1.0097(1)
C1 C 0.2535(3) 0.0035(3) 0.87500
C2 C 0.2088(5) -0.0319(4) 0.7797(4)
C3 C 0.1300(6) -0.1109(4) 0.7804(5)
C4 C 0.0961(4) -0.1539(4) 0.87500
H1 H 0.2318(5) -0.0026(4) 0.7144(4)
H2 H 0.1001(6) -0.1345(4) 0.7156(5)
H3 H 0.0429(4) -0.2071(4) 0.87500
I1E I 0.2403(1) 0.2597(1) 0.7403(1)
C3E C 0.1391(6) -0.1200(4) 0.9696(5)
C2E C 0.2181(5) -0.0412(4) 0.9703(4)
H1E H 0.2474(5) -0.0182(4) 1.0356(4)
H2E H 0.1155(6) -0.1499(4) 1.0344(5)
C1F C 0.4965(3) 0.1250(3) 0.75350
C2F C 0.5412(5) 0.0297(4) 0.7181(4)
C3F C 0.6200(6) 0.0304(4) 0.6391(5)
C4F C 0.6539(4) 0.1250(4) 0.59610
C3V C 0.6109(6) 0.2196(4) 0.6300(5)
C2V C 0.5319(5) 0.2203(4) 0.7088(4)
H1V H 0.5026(5) 0.2856(4) 0.7318(4)
H2V H 0.6345(6) 0.2844(4) 0.6001(5)
H3F H 0.7071(4) 0.1250(4) 0.54290
H2F H 0.6499(6) -0.0344(4) 0.6155(5)
H1F H 0.5182(5) -0.0356(4) 0.7474(4)
C1L C 0.3750(3) 0.2465(3) 0.99650
C2L C 0.2797(5) 0.2912(4) 1.0319(4)
C3L C 0.2804(6) 0.3700(4) 1.1109(5)
C4L C 0.3750(4) 0.4039(4) 1.15390
C3T C 0.4696(6) 0.3609(4) 1.1200(5)
C2T C 0.4703(5) 0.2819(4) 1.0412(4)
H1T H 0.5356(5) 0.2526(4) 1.0182(4)
H2T H 0.5344(6) 0.3845(4) 1.1499(5)
H3L H 0.3750(4) 0.4571(4) 1.20710
H2L H 0.2156(6) 0.3999(4) 1.1345(5)
H1L H 0.2144(5) 0.2682(4) 1.0026(4)
#END

data_CSD_CIF_ZZZWMY01
_audit_creation_date 2003-01-14
_audit_creation_method CSD-ConQuest-V1
_database_code_CSD ZZZWMY01
_database_code_depnum_ccdc_archive 'CCDC 198919'
_chemical_formula_sum 'C21 H21 Cl2 Sb1'
_chemical_formula_moiety
;
C21 H21 Cl2 Sb1
;
_journal_coden_Cambridge 444
_journal_volume 72
_journal_year 2002
_journal_page_first 421
_journal_name_full 'Zh.Obshch.Khim.(Russ.)(Russ.J.Gen.Chem.) '
loop_
_publ_author_name
"V.V.Sharutin"
"O.K.Sharutina"
"A.P.Pakusina"
"T.P.Platonova"
"V.K.Belsky"
_chemical_name_systematic
;
Dichloro-tris(p-tolyl)-antimony(v)
;
_chemical_melting_point 428.15
_cell_volume   2062.447
_exptl_crystal_colour 'yellow'
_exptl_crystal_density_diffrn 1.501
_exptl_crystal_description 'prism'
_exptl_crystal_preparation 'toluene'
_diffrn_ambient_temperature 293
#These two values have been output from a single CSD field.
_refine_ls_R_factor_gt 0.023
_refine_ls_wR_factor_gt 0.023
_symmetry_cell_setting cubic
_symmetry_space_group_name_H-M 'P 43 3 2'
_symmetry_Int_Tables_number 212
loop_
_symmetry_equiv_pos_site_id
_symmetry_equiv_pos_as_xyz
1 x,y,z
2 1/2-x,-y,1/2+z
3 -x,1/2+y,1/2-z
4 1/2+x,1/2-y,-z
5 z,x,y
6 1/2+z,1/2-x,-y
7 1/2-z,-x,1/2+y
8 -z,1/2+x,1/2-y
9 y,z,x
10 -y,1/2+z,1/2-x
11 1/2+y,1/2-z,-x
12 1/2-y,-z,1/2+x
13 1/4+y,-1/4+x,-1/4-z
14 1/4-y,1/4-x,1/4-z
15 -1/4+y,-1/4-x,1/4+z
16 -1/4-y,1/4+x,-1/4+z
17 1/4+x,-1/4+z,-1/4-y
18 -1/4-x,1/4+z,-1/4+y
19 1/4-x,1/4-z,1/4-y
20 -1/4+x,-1/4-z,1/4+y
21 1/4+z,-1/4+y,-1/4-x
22 -1/4+z,-1/4-y,1/4+x
23 -1/4-z,1/4+y,-1/4+x
24 1/4-z,1/4-y,1/4-x
_cell_length_a 12.729(1)
_cell_length_b 12.729(1)
_cell_length_c 12.729(1)
_cell_angle_alpha 90
_cell_angle_beta 90
_cell_angle_gamma 90
_cell_formula_units_Z 4
loop_
_atom_type_symbol
_atom_type_radius_bond
C 0.68
H 0.23
Cl 0.99
Sb 1.46
loop_
_atom_site_label
_atom_site_type_symbol
_atom_site_fract_x
_atom_site_fract_y
_atom_site_fract_z
Sb1 Sb 0.12500 0.12500 0.12500
Cl1 Cl 0.01269(9) 0.01269(9) 0.01269(9)
C1 C 0.0081(4) 0.12500 0.2419(4)
C2 C -0.0346(5) 0.0324(4) 0.2774(5)
C3 C -0.1098(5) 0.0336(4) 0.3552(5)
C4 C -0.1476(4) 0.12500 0.3976(4)
C5 C -0.2297(5) 0.12500 0.4797(5)
H1 H -0.107(7) -0.006(9) 0.405(7)
H2 H -0.013(5) -0.028(5) 0.240(4)
H3? H -0.26730 0.03910 0.50550
H4? H -0.27330 0.21290 0.49590
H5? H -0.20370 0.11070 0.55110
Cl1M Cl 0.23731(9) 0.23731(9) 0.23731(9)
C3W C -0.1052(5) 0.2164(4) 0.3598(5)
C2W C -0.0274(5) 0.2176(4) 0.2846(5)
H2W H 0.010(5) 0.278(5) 0.263(4)
H1W H -0.155(7) 0.256(9) 0.357(7)
C1D C 0.2419(4) 0.00810 0.1250(4)
C2D C 0.2774(5) -0.0346(4) 0.0324(5)
C3D C 0.3552(5) -0.1098(4) 0.0336(5)
C4D C 0.3976(4) -0.14760 0.1250(4)
C3R C 0.3598(5) -0.1052(4) 0.2164(5)
C2R C 0.2846(5) -0.0274(4) 0.2176(5)
H2R H 0.263(5) 0.010(5) 0.278(4)
H1R H 0.357(7) -0.155(9) 0.256(7)
C5D C 0.4797(5) -0.22970 0.1250(5)
H1D H 0.405(7) -0.107(9) -0.006(7)
H2D H 0.240(5) -0.013(5) -0.028(4)
C1H C 0.1250(4) 0.24190 0.0081(4)
C2H C 0.0324(5) 0.2774(4) -0.0346(5)
C3H C 0.0336(5) 0.3552(4) -0.1098(5)
C4H C 0.1250(4) 0.39760 -0.1476(4)
C3M C 0.2164(5) 0.3598(4) -0.1052(5)
C2M C 0.2176(5) 0.2846(4) -0.0274(5)
H2M H 0.278(5) 0.263(5) 0.010(4)
H1M H 0.256(7) 0.357(9) -0.155(7)
C5H C 0.1250(5) 0.47970 -0.2297(5)
H1H H -0.006(7) 0.405(9) -0.107(7)
H2H H -0.028(5) 0.240(5) -0.013(4)
#END

data_CSD_CIF_ZZZWNC01
_audit_creation_date 2003-10-23
_audit_creation_method CSD-ConQuest-V1
_database_code_CSD ZZZWNC01
_chemical_formula_sum 'C21 H21 Br2 Sb1'
_chemical_formula_moiety
;
C21 H21 Br2 Sb1
;
_journal_coden_Cambridge 367
_journal_volume 28
_journal_year 2002
_journal_page_first 887
_journal_name_full 'Koord.Khim.(Russ.)(Coord.Chem.) '
loop_
_publ_author_name
"V.V.Sharutin"
"O.K.Sharutina"
"A.P.Pakusina"
"T.P.Platonova"
"A.V.Gerasimenko"
"A.S.Sergienko"
_chemical_name_systematic
;
Dibromo-tris(p-tolyl)-antimony(v)
;
_chemical_melting_point 506.15
_cell_volume   2126.286
_exptl_crystal_density_diffrn 1.733
_exptl_crystal_description 'cube'
_exptl_crystal_preparation 'toluene'
_diffrn_ambient_temperature 295
#These two values have been output from a single CSD field.
_refine_ls_R_factor_gt 0.0224
_refine_ls_wR_factor_gt 0.0224
_symmetry_cell_setting cubic
_symmetry_space_group_name_H-M 'P 43 3 2'
_symmetry_Int_Tables_number 212
loop_
_symmetry_equiv_pos_site_id
_symmetry_equiv_pos_as_xyz
1 x,y,z
2 3/4-y,1/4+x,3/4+z
3 1/2+x,1/2-y,-z
4 z,x,y
5 1/2-x,-y,1/2+z
6 1/4+y,3/4+x,3/4-z
7 3/4-x,1/4+z,3/4+y
8 3/4+y,3/4-x,1/4+z
9 -x,1/2+y,1/2-z
10 1/2-z,-x,1/2+y
11 1/4-y,1/4-x,1/4-z
12 3/4+x,3/4-z,1/4+y
13 1/2+z,1/2-x,-y
14 1/4-x,1/4-z,1/4-y
15 -z,1/2+x,1/2-y
16 1/4+x,3/4+z,3/4-y
17 y,z,x
18 3/4-z,1/4+y,3/4+x
19 1/4+z,3/4+y,3/4-x
20 1/2+y,1/2-z,-x
21 1/4-z,1/4-y,1/4-x
22 -y,1/2+z,1/2-x
23 1/2-y,-z,1/2+x
24 3/4+z,3/4-y,1/4+x
_cell_length_a 12.859(1)
_cell_length_b 12.859(1)
_cell_length_c 12.859(1)
_cell_angle_alpha 90
_cell_angle_beta 90
_cell_angle_gamma 90
_cell_formula_units_Z 4
loop_
_atom_type_symbol
_atom_type_radius_bond
C 0.68
Br 1.21
Sb 1.46
loop_
_atom_site_label
_atom_site_type_symbol
_atom_site_fract_x
_atom_site_fract_y
_atom_site_fract_z
Sb1 Sb 0.87500 0.37500 1.12500
Br1 Br 0.99313(2) 0.49313(2) 1.00687(2)
C1 C 0.87500 0.2589(2) 1.0089(2)
C2 C 0.7829(2) 0.2177(3) 0.9737(3)
C3 C 0.7833(3) 0.1439(3) 0.8956(3)
C4 C 0.87500 0.1051(3) 0.8551(3)
C5 C 0.87500 0.0226(3) 0.7726(3)
Br1F Br 0.75687(2) 0.25687(2) 1.24313(2)
C3F C 0.9667(3) 0.1456(3) 0.8939(3)
C2F C 0.9671(2) 0.2237(3) 0.9677(3)
C1J C 0.99110 0.3750(2) 1.2411(2)
C2J C 1.0323(2) 0.4671(3) 1.2763(3)
C3J C 1.1061(3) 0.4667(3) 1.3544(3)
C4J C 1.14490 0.3750(3) 1.3949(3)
C3N C 1.1044(3) 0.2833(3) 1.3561(3)
C2N C 1.0263(2) 0.2829(3) 1.2823(3)
C5J C 1.22740 0.3750(3) 1.4774(3)
C1S C 0.75890 0.4911(2) 1.1250(2)
C2S C 0.7177(2) 0.5263(3) 1.2171(3)
C3S C 0.6439(3) 0.6044(3) 1.2167(3)
C4S C 0.60510 0.6449(3) 1.1250(3)
C3W C 0.6456(3) 0.6061(3) 1.0333(3)
C2W C 0.7237(2) 0.5323(3) 1.0329(3)
C5S C 0.52260 0.7274(3) 1.1250(3)
#END

data_CSD_CIF_ZZZWNC02
_audit_creation_date 2010-09-06
_audit_creation_method CSD-ConQuest-V1
_database_code_CSD ZZZWNC02
_database_code_depnum_ccdc_archive 'CCDC 767507'
_chemical_formula_sum 'C21 H21 Br2 Sb1'
_chemical_formula_moiety
;
C21 H21 Br2 Sb1
;
_journal_coden_Cambridge 1078
_journal_year 2010
_journal_name_full 'CSD Communication(Private Communication) '
loop_
_publ_author_name
"M.Bolte"
_chemical_name_systematic
;
Dibromo(tris(4-methylphenyl))stiborane
;
_cell_volume   2051.675
_exptl_crystal_colour 'colorless'
_exptl_crystal_density_diffrn 1.797
_exptl_special_details
;
contribution from Institut fuer Anorganische Chemie, 
J.-W.-Goethe-Universitaet, Max-von-Laue-Str. 7, D-60438 Frankfurt/Main, 
Germany
;
_exptl_crystal_description 'block'
_diffrn_ambient_temperature 173
#These two values have been output from a single CSD field.
_refine_ls_R_factor_gt 0.0405
_refine_ls_wR_factor_gt 0.0405
_symmetry_cell_setting cubic
_symmetry_space_group_name_H-M 'P 43 3 2'
_symmetry_Int_Tables_number 212
loop_
_symmetry_equiv_pos_site_id
_symmetry_equiv_pos_as_xyz
1 x,y,z
2 3/4-y,1/4+x,3/4+z
3 1/2-x,-y,1/2+z
4 3/4+y,3/4-x,1/4+z
5 1/2+x,1/2-y,-z
6 1/4+y,3/4+x,3/4-z
7 -x,1/2+y,1/2-z
8 1/4-y,1/4-x,1/4-z
9 z,x,y
10 3/4-x,1/4+z,3/4+y
11 1/2-z,-x,1/2+y
12 3/4+x,3/4-z,1/4+y
13 1/2+z,1/2-x,-y
14 1/4+x,3/4+z,3/4-y
15 -z,1/2+x,1/2-y
16 1/4-x,1/4-z,1/4-y
17 y,z,x
18 1/4-z,1/4-y,1/4-x
19 3/4-z,1/4+y,3/4+x
20 1/4+z,3/4+y,3/4-x
21 3/4+z,3/4-y,1/4+x
22 1/2+y,1/2-z,-x
23 1/2-y,-z,1/2+x
24 -y,1/2+z,1/2-x
_cell_length_a 12.7068(14)
_cell_length_b 12.7068(14)
_cell_length_c 12.7068(14)
_cell_angle_alpha 90
_cell_angle_beta 90
_cell_angle_gamma 90
_cell_formula_units_Z 4
loop_
_atom_type_symbol
_atom_type_radius_bond
C 0.68
H 0.23
Br 1.21
Sb 1.39
loop_
_atom_site_label
_atom_site_type_symbol
_atom_site_fract_x
_atom_site_fract_y
_atom_site_fract_z
Sb1 Sb 0.87500 0.37500 1.12500
Br1 Br 0.75691(5) 0.25691(5) 1.24309(5)
C1 C 0.7580(4) 0.4920(4) 1.12500
C2 C 0.7158(6) 0.5277(6) 1.2181(5)
H1 H 0.73850 0.49770 1.28280
C3 C 0.6421(6) 0.6053(5) 1.2188(5)
H2 H 0.61720 0.63120 1.28440
C4 C 0.6017(5) 0.6483(5) 1.12500
C5 C 0.5207(5) 0.7293(5) 1.12500
H3 H 0.48980 0.73470 1.05460
H4? H 0.55200 0.79700 1.14460
H5? H 0.46580 0.71070 1.17580
Br1G Br 0.99309(5) 0.49309(5) 1.00691(5)
C1I C 0.9920(4) 0.3750(4) 1.24200
C1N C 0.8750(4) 0.2580(4) 1.00800
C2G C 0.7223(6) 0.5342(6) 1.0319(5)
C2I C 1.0342(6) 0.4681(6) 1.2777(5)
C2U C 1.0277(6) 0.2819(6) 1.2842(5)
C2N C 0.7819(6) 0.2158(6) 0.9723(5)
C2T C 0.9681(6) 0.2223(6) 0.9658(5)
H1G H 0.75230 0.51150 0.96720
H1I H 1.01150 0.53280 1.24770
H1U H 0.99770 0.21720 1.26150
H1N H 0.71720 0.23850 1.00230
H1T H 1.03280 0.25230 0.98850
C3G C 0.6447(6) 0.6079(5) 1.0312(5)
C3I C 1.1079(6) 0.4688(5) 1.3553(5)
C3U C 1.1053(6) 0.2812(5) 1.3579(5)
C3N C 0.7812(6) 0.1421(5) 0.8947(5)
C3T C 0.9688(6) 0.1447(5) 0.8921(5)
H2G H 0.61880 0.63280 0.96560
H2I H 1.13280 0.53440 1.38120
H2U H 1.13120 0.21560 1.38280
H2N H 0.71560 0.11720 0.86880
H2T H 1.03440 0.11880 0.86720
C4I C 1.1483(5) 0.3750(5) 1.39830
C4N C 0.8750(5) 0.1017(5) 0.85170
C5I C 1.2293(5) 0.3750(5) 1.47930
C5N C 0.8750(5) 0.0207(5) 0.77070
H3G H 0.51530 0.76020 1.19540
H3I H 1.26020 0.30460 1.48470
H3U H 1.23470 0.44540 1.51020
H3N H 0.94540 -0.01020 0.76530
H3T H 0.80460 0.01530 0.73980
#END
