
#######################################################################
#
#                 Cambridge Crystallographic Data Centre
#                                CCDC
#
#######################################################################
#
# If this CIF has been generated from an entry in the Cambridge
# Structural Database, then it will include bibliographic, chemical,
# crystal, experimental, refinement or atomic coordinate data resulting
# from the CCDC's data processing and validation procedures.
#
#######################################################################

data_CSD_CIF_ZISCUC01
_audit_creation_date 2018-12-22
_audit_creation_method CSD-ConQuest-V1
_database_code_CSD ZISCUC01
_database_code_depnum_ccdc_archive 'CCDC 1865524'
_chemical_formula_sum 'C4 H11 Cl5 Fe1 N1'
_chemical_formula_moiety
;
C4 H11 Cl1 N1 1+,Cl4 Fe1 1-
;
_journal_coden_Cambridge 9
_journal_volume 58
_journal_year 2019
_journal_page_first 655
_journal_name_full 'Inorg.Chem. '
loop_
_publ_author_name
"Dong Li"
"Xue-Mei Zhao"
"Hai-Xia Zhao"
"La-Sheng Long"
"Lan-Sun Zheng"
_chemical_name_systematic
;
chloro-N,N,N-trimethylmethanaminium tetrachloro-iron(iii)
;
_cell_volume    341.386
_exptl_crystal_colour 'yellow'
_exptl_crystal_density_diffrn 1.489
_exptl_special_details
;
cubic Pm-3m polymorph

;
_exptl_crystal_description 'needle'
_diffrn_ambient_temperature 340.0
#These two values have been output from a single CSD field.
_refine_ls_R_factor_gt 0.0437
_refine_ls_wR_factor_gt 0.0437
_symmetry_cell_setting cubic
_symmetry_space_group_name_H-M 'P m -3 m'
_symmetry_Int_Tables_number 221
loop_
_symmetry_equiv_pos_site_id
_symmetry_equiv_pos_as_xyz
1 x,y,z
2 -x,-y,z
3 -x,y,-z
4 x,-y,-z
5 z,x,y
6 z,-x,-y
7 -z,-x,y
8 -z,x,-y
9 y,z,x
10 -y,z,-x
11 y,-z,-x
12 -y,-z,x
13 y,x,-z
14 -y,-x,-z
15 y,-x,z
16 -y,x,z
17 x,z,-y
18 -x,z,y
19 -x,-z,-y
20 x,-z,y
21 z,y,-x
22 z,-y,x
23 -z,y,x
24 -z,-y,-x
25 -x,-y,-z
26 x,y,-z
27 x,-y,z
28 -x,y,z
29 -z,-x,-y
30 -z,x,y
31 z,x,-y
32 z,-x,y
33 -y,-z,-x
34 y,-z,x
35 -y,z,x
36 y,z,-x
37 -y,-x,z
38 y,x,z
39 -y,x,-z
40 y,-x,-z
41 -x,-z,y
42 x,-z,-y
43 x,z,y
44 -x,z,-y
45 -z,-y,x
46 -z,y,-x
47 z,-y,-x
48 z,y,x
_cell_length_a 6.989(5)
_cell_length_b 6.989(5)
_cell_length_c 6.989(5)
_cell_angle_alpha 90
_cell_angle_beta 90
_cell_angle_gamma 90
_cell_formula_units_Z 1
loop_
_atom_type_symbol
_atom_type_radius_bond
C 0.68
H 0.23
Cl 0.99
Fe 1.52
N 0.68
loop_
_atom_site_label
_atom_site_type_symbol
_atom_site_fract_x
_atom_site_fract_y
_atom_site_fract_z
N1 N 0.464(8) 0.525(16) 0.508(19)
C1 C 0.359(12) 0.66(2) 0.65(3)
H1 H 0.23430 0.68490 0.59510
H2 H 0.34630 0.59470 0.76730
H3 H 0.42990 0.77310 0.66020
C2 C 0.352(8) 0.34(2) 0.48(3)
H4 H 0.22690 0.37040 0.43480
H5 H 0.41780 0.25850 0.39820
H6 H 0.33870 0.28010 0.60690
C3 C 0.48(3) 0.62(3) 0.32(2)
H7 H 0.35850 0.65130 0.26640
H8 H 0.55420 0.73970 0.33130
H9 H 0.54970 0.53990 0.22940
C4 C 0.660(8) 0.481(14) 0.587(18)
H10 H 0.64590 0.42110 0.71190
H11 H 0.72960 0.59950 0.60500
Cl1 Cl 0.792(8) 0.331(11) 0.44(2)
Fe1 Fe 0.975(11) 1.018(18) 1.019(19)
Cl2 Cl 1.01(4) 0.96(5) 1.306(19)
Cl3 Cl 1.18(3) 0.87(4) 0.87(4)
Cl4 Cl 1.01(4) 1.306(19) 0.97(5)
Cl5 Cl 0.709(19) 0.93(4) 0.93(4)
#END
