
#######################################################################
#
#                 Cambridge Crystallographic Data Centre
#                                CCDC
#
#######################################################################
#
# If this CIF has been generated from an entry in the Cambridge
# Structural Database, then it will include bibliographic, chemical,
# crystal, experimental, refinement or atomic coordinate data resulting
# from the CCDC's data processing and validation procedures.
#
#######################################################################

data_CSD_CIF_EBEMOQ
_audit_creation_date 2016-11-30
_audit_creation_method CSD-ConQuest-V1
_database_code_CSD EBEMOQ
_database_code_depnum_ccdc_archive 'CCDC 832210'
_chemical_formula_sum 'C38 H46 Ar1 O7'
_chemical_formula_moiety
;
C38 H44 O6,x(H2 O1),x(Ar1)
;
_journal_coden_Cambridge 1326
_journal_volume 14
_journal_year 2012
_journal_page_first 311
_journal_name_full 'Phys.Chem.Chem.Phys.(PCCP) '
loop_
_publ_author_name
"L.Erra"
"C.Tedesco"
"V.R.Cipolletti"
"Liana Annunziata"
"C.Gaeta"
"M.Brunelli"
"A.N.Fitch"
"C.Knofel"
"P.L.Llewellyn"
"J.L.Atwood"
"P.Neri"
_chemical_name_systematic
;
5,23-di-t-butyl-25,26-dimethoxy-11,17,27,28-tetrahydroxycalix(4)arene argon 
hydrate
;
_chemical_name_common
;
17,23-di-t-butyl-25,26-dimethoxypentacyclo[19.3.1.1$3,7!.1$9,13!.1$15,19!]octa
cosa-1(25),3(28),4,6,9(27),10,12,15(26),16,18,21,23-dodecaene-5,11,27,28-tetro
l argon hydrate
;
_cell_volume  47587.948
_exptl_special_details
;
The stoichiometry is unclear from the paper - the authors have been contacted 
regarding this
;
_diffrn_ambient_temperature 80
#These two values have been output from a single CSD field.
_refine_ls_R_factor_gt 0.0189
_refine_ls_wR_factor_gt 0.0189
_symmetry_cell_setting cubic
_symmetry_space_group_name_H-M 'P n 3 n'
_symmetry_Int_Tables_number 222
loop_
_symmetry_equiv_pos_site_id
_symmetry_equiv_pos_as_xyz
1 x,y,z
2 1/2-x,1/2-y,z
3 1/2-x,1/2-z,1/2-y
4 1/2-x,z,y
5 1/2-x,y,1/2-z
6 1/2-y,1/2-x,1/2-z
7 1/2-y,1/2-z,x
8 1/2-y,z,1/2-x
9 1/2-y,x,z
10 1/2-z,1/2-x,y
11 1/2-z,1/2-y,1/2-x
12 1/2-z,y,x
13 1/2-z,x,1/2-y
14 z,1/2-x,1/2-y
15 z,1/2-y,x
16 z,y,1/2-x
17 z,x,y
18 y,1/2-x,z
19 y,1/2-z,1/2-x
20 y,z,x
21 y,x,1/2-z
22 x,1/2-y,1/2-z
23 x,1/2-z,y
24 x,z,1/2-y
25 -x,-y,-z
26 -1/2+x,-1/2+y,-z
27 -1/2+x,-1/2+z,-1/2+y
28 -1/2+x,-z,-y
29 -1/2+x,-y,-1/2+z
30 -1/2+y,-1/2+x,-1/2+z
31 -1/2+y,-1/2+z,-x
32 -1/2+y,-z,-1/2+x
33 -1/2+y,-x,-z
34 -1/2+z,-1/2+x,-y
35 -1/2+z,-1/2+y,-1/2+x
36 -1/2+z,-y,-x
37 -1/2+z,-x,-1/2+y
38 -z,-1/2+x,-1/2+y
39 -z,-1/2+y,-x
40 -z,-y,-1/2+x
41 -z,-x,-y
42 -y,-1/2+x,-z
43 -y,-1/2+z,-1/2+x
44 -y,-z,-x
45 -y,-x,-1/2+z
46 -x,-1/2+y,-1/2+z
47 -x,-1/2+z,-y
48 -x,-z,-1/2+y
_cell_length_a 36.23812(52)
_cell_length_b 36.23812(52)
_cell_length_c 36.23812(52)
_cell_angle_alpha 90
_cell_angle_beta 90
_cell_angle_gamma 90
_cell_formula_units_Z 48
loop_
_atom_type_symbol
_atom_type_radius_bond
C 0.68
H 0.23
Ar 1.61
O 0.68
loop_
_atom_site_label
_atom_site_type_symbol
_atom_site_fract_x
_atom_site_fract_y
_atom_site_fract_z
C1 C 0.93725 0.12424 0.37868
H1 H 0.95015 0.10526 0.36516
H2 H 0.91358 0.12797 0.36705
C2 C 0.93088 0.11099 0.41779
C3 C 0.95807 0.08917 0.43488
H3 H 0.97915 0.08237 0.42219
C4 C 0.95312 0.07817 0.47010
C5 C 0.92376 0.08897 0.49079
H4 H 0.92203 0.08207 0.51525
C6 C 0.89636 0.11030 0.47536
C7 C 0.90071 0.12000 0.43782
C8 C 0.86432 0.12327 0.49727
H5 H 0.85787 0.10453 0.51502
H6 H 0.84341 0.12623 0.48099
C9 C 0.87082 0.15948 0.51566
C10 C 0.86759 0.19323 0.49880
C11 C 0.87309 0.22589 0.51670
C12 C 0.88291 0.22574 0.55197
H7 H 0.88663 0.24783 0.56410
C13 C 0.88787 0.19272 0.57137
C14 C 0.88150 0.16013 0.55364
H8 H 0.88401 0.13813 0.56639
C15 C 0.87006 0.26290 0.49730
H9 H 0.84876 0.26265 0.48123
H10 H 0.86630 0.28197 0.51543
C16 C 0.90215 0.27250 0.47365
C17 C 0.90184 0.26648 0.43596
C18 C 0.93270 0.27170 0.41430
C19 C 0.96362 0.28686 0.43068
H11 H 0.98437 0.29102 0.41645
C20 C 0.96482 0.29622 0.46812
C21 C 0.93454 0.28768 0.48880
H12 H 0.93530 0.29215 0.51390
C22 C 0.93428 0.26116 0.37427
H13 H 0.94791 0.27965 0.36084
H14 H 0.90955 0.26067 0.36433
C23 C 0.95264 0.22409 0.36972
C24 C 0.93295 0.19166 0.37332
C25 C 0.95090 0.15695 0.37113
C26 C 0.98671 0.15639 0.36476
H15 H 0.99841 0.13374 0.36304
C27 C 1.00815 0.18797 0.36043
C28 C 0.98963 0.22140 0.36297
H16 H 1.00323 0.24280 0.35998
C29 C 0.99708 0.31673 0.48392
C30 C 1.04927 0.18559 0.35030
O1 O 0.97905 0.05492 0.48599
H17 H 0.99379 0.04824 0.47041
O2 O 0.87260 0.13808 0.41991
H18 H 0.88097 0.15004 0.40283
O3 O 0.85610 0.19247 0.46221
H19 H 0.85015 0.21316 0.45568
O4 O 0.89724 0.19430 0.60708
H20 H 0.90803 0.21362 0.61124
O5 O 0.86972 0.25410 0.42025
O6 O 0.89666 0.19258 0.38034
C31 C 0.84386 0.28316 0.41212
H21 H 0.81969 0.27587 0.41951
H22 H 0.84392 0.28804 0.38627
H23 H 0.85067 0.30508 0.42513
C32 C 0.87362 0.18254 0.35045
H24 H 0.85548 0.20132 0.34664
H25 H 0.88806 0.17979 0.32858
H26 H 0.86159 0.15979 0.35576
C33 C 0.99605 0.31626 0.52541
H27 H 0.99669 0.29143 0.53405
H28 H 0.97391 0.32783 0.53390
H29 H 1.01680 0.32936 0.53497
C34 C 0.99656 0.35636 0.47820
H30 H 0.99801 0.36164 0.45239
H31 H 1.01710 0.36742 0.49052
H32 H 0.97423 0.36639 0.48788
C35 C 1.03042 0.30010 0.47090
H33 H 1.03132 0.27495 0.47852
H34 H 1.05113 0.31298 0.48083
H35 H 1.03133 0.30140 0.44462
C36 C 1.07248 0.21018 0.37336
H36 H 1.06434 0.23508 0.37074
H37 H 1.09767 0.20836 0.36562
H38 H 1.07065 0.20304 0.39863
C37 C 1.05705 0.20575 0.31581
H39 H 1.05265 0.23154 0.31944
H40 H 1.04133 0.19693 0.29654
H41 H 1.08221 0.20226 0.30887
C38 C 1.05977 0.14816 0.34863
H42 H 1.04594 0.13587 0.32982
H43 H 1.05494 0.13652 0.37185
H44 H 1.08542 0.14630 0.34309
O7 O 0.94889 -0.05111 0.55111
Ar1 Ar 0.64887(88) 0.26097(10) 0.79471(13)
Ar2 Ar 0.56242(36) 0.25000 0.75000
H45? H 0.99496 0.34112 0.53448
H46? H 1.01786 0.30460 0.53462
H47? H 0.97479 0.30296 0.53357
H48? H 0.99488 0.36865 0.50155
H49? H 0.97573 0.36286 0.46337
H50? H 1.01873 0.36379 0.46593
H51? H 1.04455 0.31798 0.45745
H52? H 1.02462 0.27981 0.45499
H53? H 1.04462 0.29140 0.49142
H54? H 1.09082 0.19584 0.38588
H55? H 1.05735 0.22254 0.39108
H56? H 1.08448 0.22804 0.35801
H57? H 1.06491 0.18886 0.29711
H58? H 1.07609 0.22360 0.32001
H59? H 1.03523 0.21827 0.30773
H60? H 1.07829 0.14332 0.36677
H61? H 1.06931 0.14268 0.32458
H62? H 1.03871 0.13284 0.35345
#END

data_CSD_CIF_FIRTOP10
_audit_creation_date 1988-11-02
_audit_creation_method CSD-ConQuest-V1
_database_code_CSD FIRTOP10
_chemical_formula_sum 'C60 H64 N8 Ni2 O2'
_chemical_formula_moiety
;
C60 H60 N8 Ni2,2(H2 O1)
;
_journal_coden_Cambridge 4
_journal_volume 110
_journal_year 1988
_journal_page_first 1144
_journal_name_full 'J.Am.Chem.Soc. '
loop_
_publ_author_name
"F.A.Cotton"
"M.Matusz"
"R.Poli"
"Xuejun Feng"
_chemical_name_systematic
;
tetrakis(\m~2~-N,N'-Di-p-tolylformamidinato-N,N')-di-nickel dihydrate
;
_cell_volume   9052.232
_exptl_crystal_colour 'black'
_exptl_crystal_density_diffrn 1.152
_exptl_special_details
;
Isostructural with Pd analogue

;
_diffrn_ambient_temperature ?
_diffrn_special_details
;
The study was carried out at room temperature,in the range 283-303K

;
#These two values have been output from a single CSD field.
_refine_ls_R_factor_gt 0.049
_refine_ls_wR_factor_gt 0.049
_symmetry_cell_setting cubic
_symmetry_space_group_name_H-M 'P n 3 n'
_symmetry_Int_Tables_number 222
loop_
_symmetry_equiv_pos_site_id
_symmetry_equiv_pos_as_xyz
1 x,y,z
2 z,x,y
3 y,z,x
4 1/2+x,1/2+y,-z
5 1/2+z,1/2+x,-y
6 1/2+y,1/2+z,-x
7 -x,1/2+y,1/2+z
8 -z,1/2+x,1/2+y
9 -y,1/2+z,1/2+x
10 1/2-x,y,1/2-z
11 1/2-z,x,1/2-y
12 1/2-y,z,1/2-x
13 1/2+y,1/2+x,1/2+z
14 1/2+x,1/2+z,1/2+y
15 1/2+z,1/2+y,1/2+x
16 y,x,1/2-z
17 x,z,1/2-y
18 z,y,1/2-x
19 y,1/2-x,z
20 x,1/2-z,y
21 z,1/2-y,x
22 1/2+y,-x,-z
23 1/2+x,-z,-y
24 1/2+z,-y,-x
25 -x,-y,-z
26 -z,-x,-y
27 -y,-z,-x
28 -1/2-x,-1/2-y,z
29 -1/2-z,-1/2-x,y
30 -1/2-y,-1/2-z,x
31 x,-1/2-y,-1/2-z
32 z,-1/2-x,-1/2-y
33 y,-1/2-z,-1/2-x
34 -1/2+x,-y,-1/2+z
35 -1/2+z,-x,-1/2+y
36 -1/2+y,-z,-1/2+x
37 -1/2-y,-1/2-x,-1/2-z
38 -1/2-x,-1/2-z,-1/2-y
39 -1/2-z,-1/2-y,-1/2-x
40 -y,-x,-1/2+z
41 -x,-z,-1/2+y
42 -z,-y,-1/2+x
43 -y,-1/2+x,-z
44 -x,-1/2+z,-y
45 -z,-1/2+y,-x
46 -1/2-y,x,z
47 -1/2-x,z,y
48 -1/2-z,y,x
_cell_length_a 20.841(5)
_cell_length_b 20.841(5)
_cell_length_c 20.841(5)
_cell_angle_alpha 90
_cell_angle_beta 90
_cell_angle_gamma 90
_cell_formula_units_Z 6
loop_
_atom_type_symbol
_atom_type_radius_bond
C 0.68
H 0.23
N 0.68
Ni 1.44
O 0.68
loop_
_atom_site_label
_atom_site_type_symbol
_atom_site_fract_x
_atom_site_fract_y
_atom_site_fract_z
Ni1 Ni 0.75000 0.30963(7) 0.75000
O1 O 0.75000 0.576(3) 0.75000
N1 N 0.6956(3) 0.3045(3) 0.6768(3)
C1 C 0.6655(3) 0.25000 0.6655(3)
C2 C 0.6877(3) 0.3532(3) 0.6304(4)
C3 C 0.6784(4) 0.4164(4) 0.6499(4)
C4 C 0.6683(4) 0.4630(4) 0.6045(5)
C5 C 0.6689(4) 0.4504(5) 0.5394(5)
C6 C 0.6809(5) 0.3887(5) 0.5204(4)
C7 C 0.6913(4) 0.3399(4) 0.5647(4)
C8 C 0.6566(5) 0.5023(6) 0.4893(6)
H1 H 0.629(4) 0.25000 0.629(4)
H2 H 0.6778(4) 0.4281(4) 0.7004(4)
H3 H 0.6609(4) 0.5122(4) 0.6192(5)
H4 H 0.6836(5) 0.3767(5) 0.4701(4)
H5 H 0.6991(4) 0.2913(4) 0.5486(4)
H6 H 0.6487(5) 0.5476(6) 0.5134(6)
H7 H 0.6127(5) 0.4894(6) 0.4650(6)
H8 H 0.6948(5) 0.5073(6) 0.4547(6)
Ni1AA Ni 0.75000 0.19037(7) 0.75000
N1I N 0.8044(3) 0.3045(3) 0.8232(3)
N1Q N 0.6768(3) 0.3045(3) 0.8044(3)
N1UA N 0.8232(3) 0.3045(3) 0.6956(3)
N1T N 0.6768(3) 0.1955(3) 0.6956(3)
N1AA N 0.8044(3) 0.1955(3) 0.6768(3)
N1DA N 0.6956(3) 0.1955(3) 0.8232(3)
N1LA N 0.8232(3) 0.1955(3) 0.8044(3)
C1I C 0.8345(3) 0.25000 0.8345(3)
C2I C 0.8123(3) 0.3532(3) 0.8696(4)
C1DA C 0.6655(3) 0.25000 0.8345(3)
C2Q C 0.6304(3) 0.3532(3) 0.8123(4)
C1AA C 0.8345(3) 0.25000 0.6655(3)
C2UA C 0.8696(3) 0.3532(3) 0.6877(4)
C2T C 0.6304(3) 0.1468(3) 0.6877(4)
C2AA C 0.8123(3) 0.1468(3) 0.6304(4)
C2DA C 0.6877(3) 0.1468(3) 0.8696(4)
C2LA C 0.8696(3) 0.1468(3) 0.8123(4)
H1I H 0.871(4) 0.25000 0.871(4)
C3I C 0.8216(4) 0.4164(4) 0.8501(4)
C7I C 0.8087(4) 0.3399(4) 0.9353(4)
H1DA H 0.629(4) 0.25000 0.871(4)
C3Q C 0.6499(4) 0.4164(4) 0.8216(4)
C7Q C 0.5647(4) 0.3399(4) 0.8087(4)
H1AA H 0.871(4) 0.25000 0.629(4)
C3UA C 0.8501(4) 0.4164(4) 0.6784(4)
C7UA C 0.9353(4) 0.3399(4) 0.6913(4)
C3T C 0.6499(4) 0.0836(4) 0.6784(4)
C7T C 0.5647(4) 0.1601(4) 0.6913(4)
C3AA C 0.8216(4) 0.0836(4) 0.6499(4)
C7AA C 0.8087(4) 0.1601(4) 0.5647(4)
C3DA C 0.6784(4) 0.0836(4) 0.8501(4)
C7DA C 0.6913(4) 0.1601(4) 0.9353(4)
C3LA C 0.8501(4) 0.0836(4) 0.8216(4)
C7LA C 0.9353(4) 0.1601(4) 0.8087(4)
C4I C 0.8317(4) 0.4630(4) 0.8955(5)
H2I H 0.8222(4) 0.4281(4) 0.7996(4)
C6I C 0.8191(5) 0.3887(5) 0.9796(4)
H5I H 0.8009(4) 0.2913(4) 0.9514(4)
C4Q C 0.6045(4) 0.4630(4) 0.8317(5)
H2Q H 0.7004(4) 0.4281(4) 0.8222(4)
C6Q C 0.5204(5) 0.3887(5) 0.8191(4)
H5Q H 0.5486(4) 0.2913(4) 0.8009(4)
C4UA C 0.8955(4) 0.4630(4) 0.6683(5)
H2UA H 0.7996(4) 0.4281(4) 0.6778(4)
C6UA C 0.9796(5) 0.3887(5) 0.6809(4)
H5UA H 0.9514(4) 0.2913(4) 0.6991(4)
C4T C 0.6045(4) 0.0370(4) 0.6683(5)
H2T H 0.7004(4) 0.0719(4) 0.6778(4)
C6T C 0.5204(5) 0.1113(5) 0.6809(4)
H5T H 0.5486(4) 0.2087(4) 0.6991(4)
C4AA C 0.8317(4) 0.0370(4) 0.6045(5)
H2AA H 0.8222(4) 0.0719(4) 0.7004(4)
C6AA C 0.8191(5) 0.1113(5) 0.5204(4)
H5AA H 0.8009(4) 0.2087(4) 0.5486(4)
C4DA C 0.6683(4) 0.0370(4) 0.8955(5)
H2DA H 0.6778(4) 0.0719(4) 0.7996(4)
C6DA C 0.6809(5) 0.1113(5) 0.9796(4)
H5DA H 0.6991(4) 0.2087(4) 0.9514(4)
C4LA C 0.8955(4) 0.0370(4) 0.8317(5)
H2LA H 0.7996(4) 0.0719(4) 0.8222(4)
C6LA C 0.9796(5) 0.1113(5) 0.8191(4)
H5LA H 0.9514(4) 0.2087(4) 0.8009(4)
C5I C 0.8311(4) 0.4504(5) 0.9606(5)
H3I H 0.8391(4) 0.5122(4) 0.8808(5)
H4I H 0.8164(5) 0.3767(5) 1.0299(4)
C5Q C 0.5394(4) 0.4504(5) 0.8311(5)
H3Q H 0.6192(4) 0.5122(4) 0.8391(5)
H4Q H 0.4701(5) 0.3767(5) 0.8164(4)
C5UA C 0.9606(4) 0.4504(5) 0.6689(5)
H3UA H 0.8808(4) 0.5122(4) 0.6609(5)
H4UA H 1.0299(5) 0.3767(5) 0.6836(4)
C5T C 0.5394(4) 0.0496(5) 0.6689(5)
H3T H 0.6192(4) -0.0122(4) 0.6609(5)
H4T H 0.4701(5) 0.1233(5) 0.6836(4)
C5AA C 0.8311(4) 0.0496(5) 0.5394(5)
H3AA H 0.8391(4) -0.0122(4) 0.6192(5)
H4AA H 0.8164(5) 0.1233(5) 0.4701(4)
C5DA C 0.6689(4) 0.0496(5) 0.9606(5)
H3DA H 0.6609(4) -0.0122(4) 0.8808(5)
H4DA H 0.6836(5) 0.1233(5) 1.0299(4)
C5LA C 0.9606(4) 0.0496(5) 0.8311(5)
H3LA H 0.8808(4) -0.0122(4) 0.8391(5)
H4LA H 1.0299(5) 0.1233(5) 0.8164(4)
C8I C 0.8434(5) 0.5023(6) 1.0107(6)
C8Q C 0.4893(5) 0.5023(6) 0.8434(6)
C8UA C 1.0107(5) 0.5023(6) 0.6566(6)
C8T C 0.4893(5) -0.0023(6) 0.6566(6)
C8AA C 0.8434(5) -0.0023(6) 0.4893(6)
C8DA C 0.6566(5) -0.0023(6) 1.0107(6)
C8LA C 1.0107(5) -0.0023(6) 0.8434(6)
H6I H 0.8513(5) 0.5476(6) 0.9866(6)
H7I H 0.8873(5) 0.4894(6) 1.0350(6)
H8I H 0.8052(5) 0.5073(6) 1.0453(6)
H6Q H 0.5134(5) 0.5476(6) 0.8513(6)
H7Q H 0.4650(5) 0.4894(6) 0.8873(6)
H8Q H 0.4547(5) 0.5073(6) 0.8052(6)
H6UA H 0.9866(5) 0.5476(6) 0.6487(6)
H7UA H 1.0350(5) 0.4894(6) 0.6127(6)
H8UA H 1.0453(5) 0.5073(6) 0.6948(6)
H6T H 0.5134(5) -0.0476(6) 0.6487(6)
H7T H 0.4650(5) 0.0106(6) 0.6127(6)
H8T H 0.4547(5) -0.0073(6) 0.6948(6)
H6AA H 0.8513(5) -0.0476(6) 0.5134(6)
H7AA H 0.8873(5) 0.0106(6) 0.4650(6)
H8AA H 0.8052(5) -0.0073(6) 0.4547(6)
H6DA H 0.6487(5) -0.0476(6) 0.9866(6)
H7DA H 0.6127(5) 0.0106(6) 1.0350(6)
H8DA H 0.6948(5) -0.0073(6) 1.0453(6)
H6LA H 0.9866(5) -0.0476(6) 0.8513(6)
H7LA H 1.0350(5) 0.0106(6) 0.8873(6)
H8LA H 1.0453(5) -0.0073(6) 0.8052(6)
#END
