
#######################################################################
#
#                 Cambridge Crystallographic Data Centre
#                                CCDC
#
#######################################################################
#
# If this CIF has been generated from an entry in the Cambridge
# Structural Database, then it will include bibliographic, chemical,
# crystal, experimental, refinement or atomic coordinate data resulting
# from the CCDC's data processing and validation procedures.
#
#######################################################################

data_CSD_CIF_LULZUO
_audit_creation_date 2010-12-14
_audit_creation_method CSD-ConQuest-V1
_database_code_CSD LULZUO
_database_code_depnum_ccdc_archive 'CCDC 722744'
_chemical_formula_sum 'C54 H120 Li6 N18'
_chemical_formula_moiety
;
C54 H120 Li6 N18
;
_journal_coden_Cambridge 9
_journal_volume 48
_journal_year 2009
_journal_page_first 8037
_journal_name_full 'Inorg.Chem. '
loop_
_publ_author_name
"S.D.Bunge"
"J.A.Bertke"
"T.L.Cleland"
_chemical_name_systematic
;
hexakis(\m~3~-(bis(diethylamino)methylene)amino)-hexa-lithium(i)
;
_cell_volume   6877.644
_exptl_crystal_colour 'colorless'
_exptl_crystal_density_diffrn 1.027
_exptl_crystal_description 'block'
_diffrn_ambient_temperature 100
#These two values have been output from a single CSD field.
_refine_ls_R_factor_gt 0.0431
_refine_ls_wR_factor_gt 0.0431
_symmetry_cell_setting cubic
_symmetry_space_group_name_H-M 'P n -3'
_symmetry_Int_Tables_number 201
loop_
_symmetry_equiv_pos_site_id
_symmetry_equiv_pos_as_xyz
1 x,y,z
2 1/2-x,1/2-y,z
3 1/2-x,y,1/2-z
4 x,1/2-y,1/2-z
5 z,x,y
6 z,1/2-x,1/2-y
7 1/2-z,1/2-x,y
8 1/2-z,x,1/2-y
9 y,z,x
10 1/2-y,z,1/2-x
11 y,1/2-z,1/2-x
12 1/2-y,1/2-z,x
13 -x,-y,-z
14 -1/2+x,-1/2+y,-z
15 -1/2+x,-y,-1/2+z
16 -x,-1/2+y,-1/2+z
17 -z,-x,-y
18 -z,-1/2+x,-1/2+y
19 -1/2+z,-1/2+x,-y
20 -1/2+z,-x,-1/2+y
21 -y,-z,-x
22 -1/2+y,-z,-1/2+x
23 -y,-1/2+z,-1/2+x
24 -1/2+y,-1/2+z,-x
_cell_length_a 19.0172(6)
_cell_length_b 19.0172(6)
_cell_length_c 19.0172(6)
_cell_angle_alpha 90
_cell_angle_beta 90
_cell_angle_gamma 90
_cell_formula_units_Z 4
loop_
_atom_type_symbol
_atom_type_radius_bond
C 0.68
H 0.23
Li 1.28
N 0.68
loop_
_atom_site_label
_atom_site_type_symbol
_atom_site_fract_x
_atom_site_fract_y
_atom_site_fract_z
Li1 Li 0.08073(9) 0.45460(9) -0.05157(10)
N1 N 0.12344(5) 0.52666(5) 0.01169(5)
N2 N 0.23199(5) 0.47432(5) 0.04616(6)
N3 N 0.21962(5) 0.59625(5) 0.05601(5)
C1 C 0.18498(6) 0.53159(5) 0.03507(6)
C2 C 0.20289(7) 0.40556(6) 0.02933(8)
H1 H 0.20400 0.39900 -0.02120
H2 H 0.15410 0.40420 0.04410
C3 C 0.24198(10) 0.34553(8) 0.06397(12)
H3 H 0.28710 0.34000 0.04210
H4 H 0.21540 0.30290 0.05880
H5 H 0.24820 0.35560 0.11300
C4 C 0.30674(7) 0.48349(8) 0.02961(9)
H6 H 0.33290 0.44460 0.04970
H7 H 0.32330 0.52630 0.05180
C5 C 0.3224(1) 0.48727(12) -0.04801(12)
H8 H 0.30720 0.44460 -0.07030
H9 H 0.37210 0.49310 -0.05490
H10 H 0.29790 0.52650 -0.06820
C6 C 0.23597(6) 0.60117(7) 0.13146(7)
H11 H 0.24480 0.55430 0.14950
H12 H 0.19540 0.61990 0.15600
C7 C 0.29926(8) 0.64733(8) 0.14723(9)
H13 H 0.33930 0.63040 0.12150
H14 H 0.30920 0.64590 0.19670
H15 H 0.28930 0.69480 0.13340
C8 C 0.18765(7) 0.65943(6) 0.02663(7)
H16 H 0.20380 0.70020 0.05270
H17 H 0.13700 0.65660 0.03170
C9 C 0.20570(11) 0.66867(8) -0.05002(8)
H18 H 0.25570 0.67290 -0.05510
H19 H 0.18340 0.71040 -0.06760
H20 H 0.18940 0.62860 -0.07610
Li1E Li -0.05157(9) 0.41927(9) 0.0454(1)
Li1K Li 0.04540(9) 0.55157(9) 0.08073(10)
Li1Q Li 0.05157(9) 0.58073(9) -0.0454(1)
Li1W Li -0.04540(9) 0.44843(9) -0.08073(10)
Li1L Li -0.08073(9) 0.54540(9) 0.05157(10)
N1E N 0.01169(5) 0.37656(5) -0.02666(5)
N1K N -0.02666(5) 0.48831(5) 0.12344(5)
N1Q N -0.01169(5) 0.62344(5) 0.02666(5)
N1W N 0.02666(5) 0.51169(5) -0.12344(5)
N1L N -0.12344(5) 0.47334(5) -0.01169(5)
N2E N 0.04616(5) 0.26801(5) 0.02568(6)
N2K N 0.02568(5) 0.45384(5) 0.23199(6)
N2Q N -0.04616(5) 0.73199(5) -0.02568(6)
N2W N -0.02568(5) 0.54616(5) -0.23199(6)
N2L N -0.23199(5) 0.52568(5) -0.04616(6)
N3E N 0.05601(5) 0.28038(5) -0.09625(5)
N3K N -0.09625(5) 0.44399(5) 0.21962(5)
N3Q N -0.05601(5) 0.71962(5) 0.09625(5)
N3W N 0.09625(5) 0.55601(5) -0.21962(5)
N3L N -0.21962(5) 0.40375(5) -0.05601(5)
C1E C 0.03507(6) 0.31502(5) -0.03159(6)
C1K C -0.03159(6) 0.46493(5) 0.18498(6)
C1Q C -0.03507(6) 0.68498(5) 0.03159(6)
C1W C 0.03159(6) 0.53507(5) -0.18498(6)
C1L C -0.18498(6) 0.46841(5) -0.03507(6)
C2E C 0.02933(7) 0.29711(6) 0.09444(8)
C2K C 0.09444(7) 0.47067(6) 0.20289(8)
C2Q C -0.02933(7) 0.70289(6) -0.09444(8)
C2W C -0.09444(7) 0.52933(6) -0.20289(8)
C2L C -0.20289(7) 0.59444(6) -0.02933(8)
H1E H -0.02120 0.29600 0.10100
H1K H 0.10100 0.52120 0.20400
H1Q H 0.02120 0.70400 -0.10100
H1W H -0.10100 0.47880 -0.20400
H1L H -0.20400 0.60100 0.02120
H2E H 0.04410 0.34590 0.09580
H2K H 0.09580 0.45590 0.15410
H2Q H -0.04410 0.65410 -0.09580
H2W H -0.09580 0.54410 -0.15410
H2L H -0.15410 0.59580 -0.04410
C3E C 0.06397(10) 0.25802(8) 0.15447(12)
C3K C 0.15447(10) 0.43603(8) 0.24198(12)
C3Q C -0.06397(10) 0.74198(8) -0.15447(12)
C3W C -0.15447(10) 0.56397(8) -0.24198(12)
C3L C -0.24198(10) 0.65447(8) -0.06397(12)
H3E H 0.04210 0.21290 0.16000
H3K H 0.16000 0.45790 0.28710
H3Q H -0.04210 0.78710 -0.16000
H3W H -0.16000 0.54210 -0.28710
H3L H -0.28710 0.66000 -0.04210
H4E H 0.05880 0.28460 0.19710
H4K H 0.19710 0.44120 0.21540
H4Q H -0.05880 0.71540 -0.19710
H4W H -0.19710 0.55880 -0.21540
H4L H -0.21540 0.69710 -0.05880
H5E H 0.11300 0.25180 0.14440
H5K H 0.14440 0.38700 0.24820
H5Q H -0.11300 0.74820 -0.14440
H5W H -0.14440 0.61300 -0.24820
H5L H -0.24820 0.64440 -0.11300
C4E C 0.02961(7) 0.19326(8) 0.01651(9)
C4K C 0.01651(7) 0.47039(8) 0.30674(9)
C4Q C -0.02961(7) 0.80674(8) -0.01651(9)
C4W C -0.01651(7) 0.52961(8) -0.30674(9)
C4L C -0.30674(7) 0.51651(8) -0.02961(9)
H6E H 0.04970 0.16710 0.05540
H6K H 0.05540 0.45030 0.33290
H6Q H -0.04970 0.83290 -0.05540
H6W H -0.05540 0.54970 -0.33290
H6L H -0.33290 0.55540 -0.04970
H7E H 0.05180 0.17670 -0.02630
H7K H -0.02630 0.44820 0.32330
H7Q H -0.05180 0.82330 0.02630
H7W H 0.02630 0.55180 -0.32330
H7L H -0.32330 0.47370 -0.05180
C5E C -0.04801(10) 0.17760(12) 0.01273(12)
C5K C 0.01273(10) 0.54801(12) 0.32240(12)
C5Q C 0.04801(10) 0.82240(12) -0.01273(12)
C5W C -0.01273(10) 0.45199(12) -0.32240(12)
C5L C -0.3224(1) 0.51273(12) 0.04801(12)
H8E H -0.07030 0.19280 0.05540
H8K H 0.05540 0.57030 0.30720
H8Q H 0.07030 0.80720 -0.05540
H8W H -0.05540 0.42970 -0.30720
H8L H -0.30720 0.55540 0.07030
H9E H -0.05490 0.12790 0.00690
H9K H 0.00690 0.55490 0.37210
H9Q H 0.05490 0.87210 -0.00690
H9W H -0.00690 0.44510 -0.37210
H9L H -0.37210 0.50690 0.05490
H10E H -0.06820 0.20210 -0.02650
H10K H -0.02650 0.56820 0.29790
H10Q H 0.06820 0.79790 0.02650
H10W H 0.02650 0.43180 -0.29790
H10L H -0.29790 0.47350 0.06820
C6E C 0.13146(6) 0.26403(7) -0.10117(7)
C6K C -0.10117(6) 0.36854(7) 0.23597(7)
C6Q C -0.13146(6) 0.73597(7) 0.10117(7)
C6W C 0.10117(6) 0.63146(7) -0.23597(7)
C6L C -0.23597(6) 0.39883(7) -0.13146(7)
H11E H 0.14950 0.25520 -0.05430
H11K H -0.05430 0.35050 0.24480
H11Q H -0.14950 0.74480 0.05430
H11W H 0.05430 0.64950 -0.24480
H11L H -0.24480 0.44570 -0.14950
H12E H 0.15600 0.30460 -0.11990
H12K H -0.11990 0.34400 0.19540
H12Q H -0.15600 0.69540 0.11990
H12W H 0.11990 0.65600 -0.19540
H12L H -0.19540 0.38010 -0.15600
C7E C 0.14723(8) 0.20074(8) -0.14733(9)
C7K C -0.14733(8) 0.35277(8) 0.29926(9)
C7Q C -0.14723(8) 0.79926(8) 0.14733(9)
C7W C 0.14733(8) 0.64723(8) -0.29926(9)
C7L C -0.29926(8) 0.35267(8) -0.14723(9)
H13E H 0.12150 0.16070 -0.13040
H13K H -0.13040 0.37850 0.33930
H13Q H -0.12150 0.83930 0.13040
H13W H 0.13040 0.62150 -0.33930
H13L H -0.33930 0.36960 -0.12150
H14E H 0.19670 0.19080 -0.14590
H14K H -0.14590 0.30330 0.30920
H14Q H -0.19670 0.80920 0.14590
H14W H 0.14590 0.69670 -0.30920
H14L H -0.30920 0.35410 -0.19670
H15E H 0.13340 0.21070 -0.19480
H15K H -0.19480 0.36660 0.28930
H15Q H -0.13340 0.78930 0.19480
H15W H 0.19480 0.63340 -0.28930
H15L H -0.28930 0.30520 -0.13340
C8E C 0.02663(7) 0.31235(6) -0.15943(7)
C8K C -0.15943(7) 0.47337(6) 0.18765(7)
C8Q C -0.02663(7) 0.68765(6) 0.15943(7)
C8W C 0.15943(7) 0.52663(6) -0.18765(7)
C8L C -0.18765(7) 0.34057(6) -0.02663(7)
H16E H 0.05270 0.29620 -0.20020
H16K H -0.20020 0.44730 0.20380
H16Q H -0.05270 0.70380 0.20020
H16W H 0.20020 0.55270 -0.20380
H16L H -0.20380 0.29980 -0.05270
H17E H 0.03170 0.36300 -0.15660
H17K H -0.15660 0.46830 0.13700
H17Q H -0.03170 0.63700 0.15660
H17W H 0.15660 0.53170 -0.13700
H17L H -0.13700 0.34340 -0.03170
C9E C -0.05002(11) 0.29430(8) -0.16867(8)
C9K C -0.16867(11) 0.55002(8) 0.20570(8)
C9Q C 0.05002(11) 0.70570(8) 0.16867(8)
C9W C 0.16867(11) 0.44998(8) -0.20570(8)
C9L C -0.20570(11) 0.33133(8) 0.05002(8)
H18E H -0.05510 0.24430 -0.17290
H18K H -0.17290 0.55510 0.25570
H18Q H 0.05510 0.75570 0.17290
H18W H 0.17290 0.44490 -0.25570
H18L H -0.25570 0.32710 0.05510
H19E H -0.06760 0.31660 -0.21040
H19K H -0.21040 0.56760 0.18340
H19Q H 0.06760 0.68340 0.21040
H19W H 0.21040 0.43240 -0.18340
H19L H -0.18340 0.28960 0.06760
H20E H -0.07610 0.31060 -0.12860
H20K H -0.12860 0.57610 0.18940
H20Q H 0.07610 0.68940 0.12860
H20W H 0.12860 0.42390 -0.18940
H20L H -0.18940 0.37140 0.07610
#END

data_CSD_CIF_VEDZOT
_audit_creation_date 1990-09-07
_audit_creation_method CSD-ConQuest-V1
_database_code_CSD VEDZOT
_database_code_depnum_ccdc_fiz 'CSD 54074'
_chemical_formula_sum 'C156 H144 As6 O3 P8 Pd9'
_chemical_formula_moiety
;
C144 H120 As6 P8 Pd9,3(C4 H8 O1)
;
_journal_coden_Cambridge 179
_journal_volume 28
_journal_year 1989
_journal_page_first 1665
_journal_name_full 'Angew.Chem.,Int.Ed. '
loop_
_publ_author_name
"D.Fenske"
"H.Fleischer"
"C.Persau"
_chemical_name_systematic
;
hexakis(\m~4~-Arsenic)-(\m~8~-palladium)-octakis(triphenylphosphine-palladium)
 tetrahydrofuran solvate
;
_cell_volume   7546.836
_exptl_crystal_colour 'black'
_diffrn_ambient_temperature 200
#These two values have been output from a single CSD field.
_refine_ls_R_factor_gt 0.046
_refine_ls_wR_factor_gt 0.046
_symmetry_cell_setting cubic
_symmetry_space_group_name_H-M 'P n 3'
_symmetry_Int_Tables_number 201
loop_
_symmetry_equiv_pos_site_id
_symmetry_equiv_pos_as_xyz
1 x,y,z
2 z,x,y
3 y,z,x
4 1/2+x,1/2+y,-z
5 1/2+z,1/2+x,-y
6 1/2+y,1/2+z,-x
7 -x,1/2+y,1/2+z
8 -z,1/2+x,1/2+y
9 -y,1/2+z,1/2+x
10 1/2-x,y,1/2-z
11 1/2-z,x,1/2-y
12 1/2-y,z,1/2-x
13 -x,-y,-z
14 -z,-x,-y
15 -y,-z,-x
16 -1/2-x,-1/2-y,z
17 -1/2-z,-1/2-x,y
18 -1/2-y,-1/2-z,x
19 x,-1/2-y,-1/2-z
20 z,-1/2-x,-1/2-y
21 y,-1/2-z,-1/2-x
22 -1/2+x,-y,-1/2+z
23 -1/2+z,-x,-1/2+y
24 -1/2+y,-z,-1/2+x
_cell_length_a 19.615(9)
_cell_length_b 19.615(9)
_cell_length_c 19.615(9)
_cell_angle_alpha 90
_cell_angle_beta 90
_cell_angle_gamma 90
_cell_formula_units_Z 2
loop_
_atom_type_symbol
_atom_type_radius_bond
C 0.68
H 0.23
As 0.94
P 1.05
Pd 1.16
loop_
_atom_site_label
_atom_site_type_symbol
_atom_site_fract_x
_atom_site_fract_y
_atom_site_fract_z
Pd1 Pd 0.25000 0.25000 0.25000
Pd2 Pd 0.32889(5) 0.32889(5) 0.32889(5)
Pd3 Pd 0.17037(5) 0.17037(5) 0.17037(5)
As1 As 0.38783(7) 0.25000 0.25000
P1 P 0.1025(2) 0.1025(2) 0.1025(2)
P2 P 0.3967(2) 0.3967(2) 0.3967(2)
C1 C 0.0653(6) 0.0284(5) 0.1428(5)
C2 C -0.0002(7) 0.0083(6) 0.1331(5)
C3 C -0.0253(7) -0.0471(7) 0.1672(7)
C4 C 0.0141(8) -0.0820(8) 0.2113(7)
C5 C 0.0791(8) -0.0639(7) 0.2226(6)
C6 C 0.1038(6) -0.0083(7) 0.1880(6)
C7 C 0.3749(6) 0.4863(5) 0.4004(5)
C8 C 0.3059(6) 0.5023(6) 0.4005(5)
C9 C 0.2867(6) 0.5688(7) 0.4043(5)
C10 C 0.3333(7) 0.6213(6) 0.4069(5)
C11 C 0.4012(6) 0.6050(6) 0.4064(6)
C12 C 0.4211(6) 0.5379(6) 0.4031(5)
H1 H -0.0290(7) 0.0331(6) 0.1023(5)
H2 H -0.0715(7) -0.0613(7) 0.1596(7)
H3 H -0.0046(8) -0.1205(8) 0.2350(7)
H4 H 0.1072(8) -0.0889(7) 0.2539(6)
H5 H 0.1501(6) 0.0055(7) 0.1958(6)
H6 H 0.2722(6) 0.4669(6) 0.3979(5)
H7 H 0.2390(6) 0.5796(7) 0.4053(5)
H8 H 0.3186(7) 0.6679(6) 0.4088(5)
H9 H 0.4349(6) 0.6404(6) 0.4085(6)
H10 H 0.4688(6) 0.5273(6) 0.4026(5)
Pd2O Pd 0.17111(5) 0.17111(5) 0.32889(5)
Pd2R Pd 0.32889(5) 0.17111(5) 0.17111(5)
Pd2I Pd 0.17111(5) 0.32889(5) 0.17111(5)
Pd3O Pd 0.32963(5) 0.32963(5) 0.17037(5)
Pd3R Pd 0.17037(5) 0.32963(5) 0.32963(5)
Pd3I Pd 0.32963(5) 0.17037(5) 0.32963(5)
As1A As 0.25000(7) 0.38783 0.25000
As1B As 0.25000(7) 0.25000 0.38783
As1O As 0.11217(7) 0.25000 0.25000
As1P As 0.25000(7) 0.11217 0.25000
As1T As 0.25000(7) 0.25000 0.11217
C1A C 0.1428(6) 0.0653(5) 0.0284(5)
C1B C 0.0284(6) 0.1428(5) 0.0653(5)
C7A C 0.4004(6) 0.3749(5) 0.4863(5)
C7B C 0.4863(6) 0.4004(5) 0.3749(5)
P2O P 0.1033(2) 0.1033(2) 0.3967(2)
P2R P 0.3967(2) 0.1033(2) 0.1033(2)
P2I P 0.1033(2) 0.3967(2) 0.1033(2)
P1O P 0.3975(2) 0.3975(2) 0.1025(2)
P1R P 0.1025(2) 0.3975(2) 0.3975(2)
P1I P 0.3975(2) 0.1025(2) 0.3975(2)
C2A C 0.1331(7) -0.0002(6) 0.0083(5)
C6A C 0.1880(6) 0.1038(7) -0.0083(6)
C2B C 0.0083(7) 0.1331(6) -0.0002(5)
C6B C -0.0083(6) 0.1880(7) 0.1038(6)
C8A C 0.4005(6) 0.3059(6) 0.5023(5)
C12A C 0.4031(6) 0.4211(6) 0.5379(5)
C8B C 0.5023(6) 0.4005(6) 0.3059(5)
C12B C 0.5379(6) 0.4031(6) 0.4211(5)
C7O C 0.1251(6) 0.0137(5) 0.4004(5)
C7P C 0.0996(6) 0.1251(5) 0.4863(5)
C7Q C 0.0137(6) 0.0996(5) 0.3749(5)
C7R C 0.3749(6) 0.0137(5) 0.0996(5)
C7S C 0.4004(6) 0.1251(5) 0.0137(5)
C7T C 0.4863(6) 0.0996(5) 0.1251(5)
C7I C 0.1251(6) 0.4863(5) 0.0996(5)
C7J C 0.0996(6) 0.3749(5) 0.0137(5)
C7K C 0.0137(6) 0.4004(5) 0.1251(5)
C1O C 0.4347(6) 0.4716(5) 0.1428(5)
C1P C 0.3572(6) 0.4347(5) 0.0284(5)
C1Q C 0.4716(6) 0.3572(5) 0.0653(5)
C1R C 0.0653(6) 0.4716(5) 0.3572(5)
C1S C 0.1428(6) 0.4347(5) 0.4716(5)
C1T C 0.0284(6) 0.3572(5) 0.4347(5)
C1I C 0.4347(6) 0.0284(5) 0.3572(5)
C1J C 0.3572(6) 0.0653(5) 0.4716(5)
C1K C 0.4716(6) 0.1428(5) 0.4347(5)
C3A C 0.1672(7) -0.0253(7) -0.0471(7)
H1A H 0.1023(7) -0.0290(6) 0.0331(5)
C5A C 0.2226(8) 0.0791(7) -0.0639(6)
H5A H 0.1958(6) 0.1501(7) 0.0055(6)
C3B C -0.0471(7) 0.1672(7) -0.0253(7)
H1B H 0.0331(7) 0.1023(6) -0.0290(5)
C5B C -0.0639(8) 0.2226(7) 0.0791(6)
H5B H 0.0055(6) 0.1958(7) 0.1501(6)
C9A C 0.4043(6) 0.2867(7) 0.5688(5)
H6A H 0.3979(6) 0.2722(6) 0.4669(5)
C11A C 0.4064(6) 0.4012(6) 0.6050(6)
H10A H 0.4026(6) 0.4688(6) 0.5273(5)
C9B C 0.5688(6) 0.4043(7) 0.2867(5)
H6B H 0.4669(6) 0.3979(6) 0.2722(5)
C11B C 0.6050(6) 0.4064(6) 0.4012(6)
H10B H 0.5273(6) 0.4026(6) 0.4688(5)
C8O C 0.1941(6) -0.0023(6) 0.4005(5)
C12O C 0.0789(6) -0.0379(6) 0.4031(5)
C8P C 0.0995(6) 0.1941(6) 0.5023(5)
C12P C 0.0969(6) 0.0789(6) 0.5379(5)
C8Q C -0.0023(6) 0.0995(6) 0.3059(5)
C12Q C -0.0379(6) 0.0969(6) 0.4211(5)
C8R C 0.3059(6) -0.0023(6) 0.0995(5)
C12R C 0.4211(6) -0.0379(6) 0.0969(5)
C8S C 0.4005(6) 0.1941(6) -0.0023(5)
C12S C 0.4031(6) 0.0789(6) -0.0379(5)
C8T C 0.5023(6) 0.0995(6) 0.1941(5)
C12T C 0.5379(6) 0.0969(6) 0.0789(5)
C8I C 0.1941(6) 0.5023(6) 0.0995(5)
C12I C 0.0789(6) 0.5379(6) 0.0969(5)
C8J C 0.0995(6) 0.3059(6) -0.0023(5)
C12J C 0.0969(6) 0.4211(6) -0.0379(5)
C8K C -0.0023(6) 0.4005(6) 0.1941(5)
C12K C -0.0379(6) 0.4031(6) 0.0789(5)
C2O C 0.5002(7) 0.4917(6) 0.1331(5)
C6O C 0.3962(6) 0.5083(7) 0.1880(6)
C2P C 0.3669(7) 0.5002(6) 0.0083(5)
C6P C 0.3120(6) 0.3962(7) -0.0083(6)
C2Q C 0.4917(7) 0.3669(6) -0.0002(5)
C6Q C 0.5083(6) 0.3120(7) 0.1038(6)
C2R C -0.0002(7) 0.4917(6) 0.3669(5)
C6R C 0.1038(6) 0.5083(7) 0.3120(6)
C2S C 0.1331(7) 0.5002(6) 0.4917(5)
C6S C 0.1880(6) 0.3962(7) 0.5083(6)
C2T C 0.0083(7) 0.3669(6) 0.5002(5)
C6T C -0.0083(6) 0.3120(7) 0.3962(6)
C2I C 0.5002(7) 0.0083(6) 0.3669(5)
C6I C 0.3962(6) -0.0083(7) 0.3120(6)
C2J C 0.3669(7) -0.0002(6) 0.4917(5)
C6J C 0.3120(6) 0.1038(7) 0.5083(6)
C2K C 0.4917(7) 0.1331(6) 0.5002(5)
C6K C 0.5083(6) 0.1880(7) 0.3962(6)
C4A C 0.2113(8) 0.0141(8) -0.0820(7)
H2A H 0.1596(7) -0.0715(7) -0.0613(7)
H4A H 0.2539(8) 0.1072(7) -0.0889(6)
C4B C -0.0820(8) 0.2113(8) 0.0141(7)
H2B H -0.0613(7) 0.1596(7) -0.0715(7)
H4B H -0.0889(8) 0.2539(7) 0.1072(6)
C10A C 0.4069(7) 0.3333(6) 0.6213(5)
H7A H 0.4053(6) 0.2390(7) 0.5796(5)
H9A H 0.4085(6) 0.4349(6) 0.6404(6)
C10B C 0.6213(7) 0.4069(6) 0.3333(5)
H7B H 0.5796(6) 0.4053(7) 0.2390(5)
H9B H 0.6404(6) 0.4085(6) 0.4349(6)
C9O C 0.2133(6) -0.0688(7) 0.4043(5)
H6O H 0.2278(6) 0.0331(6) 0.3979(5)
C11O C 0.0988(6) -0.1050(6) 0.4064(6)
H10O H 0.0312(6) -0.0273(6) 0.4026(5)
C9P C 0.0957(6) 0.2133(7) 0.5688(5)
H6P H 0.1021(6) 0.2278(6) 0.4669(5)
C11P C 0.0936(6) 0.0988(6) 0.6050(6)
H10P H 0.0974(6) 0.0312(6) 0.5273(5)
C9Q C -0.0688(6) 0.0957(7) 0.2867(5)
H6Q H 0.0331(6) 0.1021(6) 0.2722(5)
C11Q C -0.1050(6) 0.0936(6) 0.4012(6)
H10Q H -0.0273(6) 0.0974(6) 0.4688(5)
C9R C 0.2867(6) -0.0688(7) 0.0957(5)
H6R H 0.2722(6) 0.0331(6) 0.1021(5)
C11R C 0.4012(6) -0.1050(6) 0.0936(6)
H10R H 0.4688(6) -0.0273(6) 0.0974(5)
C9S C 0.4043(6) 0.2133(7) -0.0688(5)
H6S H 0.3979(6) 0.2278(6) 0.0331(5)
C11S C 0.4064(6) 0.0988(6) -0.1050(6)
H10S H 0.4026(6) 0.0312(6) -0.0273(5)
C9T C 0.5688(6) 0.0957(7) 0.2133(5)
H6T H 0.4669(6) 0.1021(6) 0.2278(5)
C11T C 0.6050(6) 0.0936(6) 0.0988(6)
H10T H 0.5273(6) 0.0974(6) 0.0312(5)
C9I C 0.2133(6) 0.5688(7) 0.0957(5)
H6I H 0.2278(6) 0.4669(6) 0.1021(5)
C11I C 0.0988(6) 0.6050(6) 0.0936(6)
H10I H 0.0312(6) 0.5273(6) 0.0974(5)
C9J C 0.0957(6) 0.2867(7) -0.0688(5)
H6J H 0.1021(6) 0.2722(6) 0.0331(5)
C11J C 0.0936(6) 0.4012(6) -0.1050(6)
H10J H 0.0974(6) 0.4688(6) -0.0273(5)
C9K C -0.0688(6) 0.4043(7) 0.2133(5)
H6K H 0.0331(6) 0.3979(6) 0.2278(5)
C11K C -0.1050(6) 0.4064(6) 0.0988(6)
H10K H -0.0273(6) 0.4026(6) 0.0312(5)
C3O C 0.5253(7) 0.5471(7) 0.1672(7)
H1O H 0.5290(7) 0.4669(6) 0.1023(5)
C5O C 0.4209(8) 0.5639(7) 0.2226(6)
H5O H 0.3499(6) 0.4945(7) 0.1958(6)
C3P C 0.3328(7) 0.5253(7) -0.0471(7)
H1P H 0.3977(7) 0.5290(6) 0.0331(5)
C5P C 0.2774(8) 0.4209(7) -0.0639(6)
H5P H 0.3042(6) 0.3499(7) 0.0055(6)
C3Q C 0.5471(7) 0.3328(7) -0.0253(7)
H1Q H 0.4669(7) 0.3977(6) -0.0290(5)
C5Q C 0.5639(8) 0.2774(7) 0.0791(6)
H5Q H 0.4945(6) 0.3042(7) 0.1501(6)
C3R C -0.0253(7) 0.5471(7) 0.3328(7)
H1R H -0.0290(7) 0.4669(6) 0.3977(5)
C5R C 0.0791(8) 0.5639(7) 0.2774(6)
H5R H 0.1501(6) 0.4945(7) 0.3042(6)
C3S C 0.1672(7) 0.5253(7) 0.5471(7)
H1S H 0.1023(7) 0.5290(6) 0.4669(5)
C5S C 0.2226(8) 0.4209(7) 0.5639(6)
H5S H 0.1958(6) 0.3499(7) 0.4945(6)
C3T C -0.0471(7) 0.3328(7) 0.5253(7)
H1T H 0.0331(7) 0.3977(6) 0.5290(5)
C5T C -0.0639(8) 0.2774(7) 0.4209(6)
H5T H 0.0055(6) 0.3042(7) 0.3499(6)
C3I C 0.5253(7) -0.0471(7) 0.3328(7)
H1I H 0.5290(7) 0.0331(6) 0.3977(5)
C5I C 0.4209(8) -0.0639(7) 0.2774(6)
H5I H 0.3499(6) 0.0055(7) 0.3042(6)
C3J C 0.3328(7) -0.0253(7) 0.5471(7)
H1J H 0.3977(7) -0.0290(6) 0.4669(5)
C5J C 0.2774(8) 0.0791(7) 0.5639(6)
H5J H 0.3042(6) 0.1501(7) 0.4945(6)
C3K C 0.5471(7) 0.1672(7) 0.5253(7)
H1K H 0.4669(7) 0.1023(6) 0.5290(5)
C5K C 0.5639(8) 0.2226(7) 0.4209(6)
H5K H 0.4945(6) 0.1958(7) 0.3499(6)
H3A H 0.2350(8) -0.0046(8) -0.1205(7)
H3B H -0.1205(8) 0.2350(8) -0.0046(7)
H8A H 0.4088(7) 0.3186(6) 0.6679(5)
H8B H 0.6679(7) 0.4088(6) 0.3186(5)
C10O C 0.1667(7) -0.1213(6) 0.4069(5)
H7O H 0.2610(6) -0.0796(7) 0.4053(5)
H9O H 0.0651(6) -0.1404(6) 0.4085(6)
C10P C 0.0931(7) 0.1667(6) 0.6213(5)
H7P H 0.0947(6) 0.2610(7) 0.5796(5)
H9P H 0.0915(6) 0.0651(6) 0.6404(6)
C10Q C -0.1213(7) 0.0931(6) 0.3333(5)
H7Q H -0.0796(6) 0.0947(7) 0.2390(5)
H9Q H -0.1404(6) 0.0915(6) 0.4349(6)
C10R C 0.3333(7) -0.1213(6) 0.0931(5)
H7R H 0.2390(6) -0.0796(7) 0.0947(5)
H9R H 0.4349(6) -0.1404(6) 0.0915(6)
C10S C 0.4069(7) 0.1667(6) -0.1213(5)
H7S H 0.4053(6) 0.2610(7) -0.0796(5)
H9S H 0.4085(6) 0.0651(6) -0.1404(6)
C10T C 0.6213(7) 0.0931(6) 0.1667(5)
H7T H 0.5796(6) 0.0947(7) 0.2610(5)
H9T H 0.6404(6) 0.0915(6) 0.0651(6)
C10I C 0.1667(7) 0.6213(6) 0.0931(5)
H7I H 0.2610(6) 0.5796(7) 0.0947(5)
H9I H 0.0651(6) 0.6404(6) 0.0915(6)
C10J C 0.0931(7) 0.3333(6) -0.1213(5)
H7J H 0.0947(6) 0.2390(7) -0.0796(5)
H9J H 0.0915(6) 0.4349(6) -0.1404(6)
C10K C -0.1213(7) 0.4069(6) 0.1667(5)
H7K H -0.0796(6) 0.4053(7) 0.2610(5)
H9K H -0.1404(6) 0.4085(6) 0.0651(6)
C4O C 0.4859(8) 0.5820(8) 0.2113(7)
H2O H 0.5715(7) 0.5613(7) 0.1596(7)
H4O H 0.3928(8) 0.5889(7) 0.2539(6)
C4P C 0.2887(8) 0.4859(8) -0.0820(7)
H2P H 0.3404(7) 0.5715(7) -0.0613(7)
H4P H 0.2461(8) 0.3928(7) -0.0889(6)
C4Q C 0.5820(8) 0.2887(8) 0.0141(7)
H2Q H 0.5613(7) 0.3404(7) -0.0715(7)
H4Q H 0.5889(8) 0.2461(7) 0.1072(6)
C4R C 0.0141(8) 0.5820(8) 0.2887(7)
H2R H -0.0715(7) 0.5613(7) 0.3404(7)
H4R H 0.1072(8) 0.5889(7) 0.2461(6)
C4S C 0.2113(8) 0.4859(8) 0.5820(7)
H2S H 0.1596(7) 0.5715(7) 0.5613(7)
H4S H 0.2539(8) 0.3928(7) 0.5889(6)
C4T C -0.0820(8) 0.2887(8) 0.4859(7)
H2T H -0.0613(7) 0.3404(7) 0.5715(7)
H4T H -0.0889(8) 0.2461(7) 0.3928(6)
C4I C 0.4859(8) -0.0820(8) 0.2887(7)
H2I H 0.5715(7) -0.0613(7) 0.3404(7)
H4I H 0.3928(8) -0.0889(7) 0.2461(6)
C4J C 0.2887(8) 0.0141(8) 0.5820(7)
H2J H 0.3404(7) -0.0715(7) 0.5613(7)
H4J H 0.2461(8) 0.1072(7) 0.5889(6)
C4K C 0.5820(8) 0.2113(8) 0.4859(7)
H2K H 0.5613(7) 0.1596(7) 0.5715(7)
H4K H 0.5889(8) 0.2539(7) 0.3928(6)
H8O H 0.1814(7) -0.1679(6) 0.4088(5)
H8P H 0.0912(7) 0.1814(6) 0.6679(5)
H8Q H -0.1679(7) 0.0912(6) 0.3186(5)
H8R H 0.3186(7) -0.1679(6) 0.0912(5)
H8S H 0.4088(7) 0.1814(6) -0.1679(5)
H8T H 0.6679(7) 0.0912(6) 0.1814(5)
H8I H 0.1814(7) 0.6679(6) 0.0912(5)
H8J H 0.0912(7) 0.3186(6) -0.1679(5)
H8K H -0.1679(7) 0.4088(6) 0.1814(5)
H3O H 0.5046(8) 0.6205(8) 0.2350(7)
H3P H 0.2650(8) 0.5046(8) -0.1205(7)
H3Q H 0.6205(8) 0.2650(8) -0.0046(7)
H3R H -0.0046(8) 0.6205(8) 0.2650(7)
H3S H 0.2350(8) 0.5046(8) 0.6205(7)
H3T H -0.1205(8) 0.2650(8) 0.5046(7)
H3I H 0.5046(8) -0.1205(8) 0.2650(7)
H3J H 0.2650(8) -0.0046(8) 0.6205(7)
H3K H 0.6205(8) 0.2350(8) 0.5046(7)
#END

data_CSD_CIF_XASZIC
_audit_creation_date 2012-03-29
_audit_creation_method CSD-ConQuest-V1
_database_code_CSD XASZIC
_database_code_depnum_ccdc_archive 'CCDC 847994'
_chemical_formula_sum 'C24 H48 F12 Mn1 O6 P2'
_chemical_formula_moiety
;
C24 H48 Mn1 O6 2+,2(F6 P1 1-)
;
_journal_coden_Cambridge 1078
_journal_year 2011
_journal_name_full 'CSD Communication(Private Communication) '
loop_
_publ_author_name
"S.Cope"
"C.Moore"
"J.O'Connor"
"A.Rheingold"
_chemical_name_systematic
;
hexakis(tetrahydrofuran)-manganese(ii) bis(hexafluorophosphate)
;
_cell_volume   3258.248
_exptl_crystal_colour 'colorless'
_exptl_crystal_density_diffrn 1.585
_exptl_special_details
;
contribution from UC San Diego, 5128 Urey Hall MC 0358, 9500 Gilman Drive, La 
Jolla CA 92093-0358
;
_exptl_crystal_description 'octahedral block'
_diffrn_ambient_temperature 100
#These two values have been output from a single CSD field.
_refine_ls_R_factor_gt 0.0261
_refine_ls_wR_factor_gt 0.0261
_symmetry_cell_setting cubic
_symmetry_space_group_name_H-M 'P n -3'
_symmetry_Int_Tables_number 201
loop_
_symmetry_equiv_pos_site_id
_symmetry_equiv_pos_as_xyz
1 x,y,z
2 z,x,y
3 y,z,x
4 1/2-y,1/2-z,x
5 z,1/2-x,1/2-y
6 1/2-y,z,1/2-x
7 1/2-z,1/2-x,y
8 1/2-z,x,1/2-y
9 y,1/2-z,1/2-x
10 x,1/2-y,1/2-z
11 1/2-x,y,1/2-z
12 1/2-x,1/2-y,z
13 -x,-y,-z
14 -z,-x,-y
15 -y,-z,-x
16 -1/2+y,-1/2+z,-x
17 -z,-1/2+x,-1/2+y
18 -1/2+y,-z,-1/2+x
19 -1/2+z,-1/2+x,-y
20 -1/2+z,-x,-1/2+y
21 -y,-1/2+z,-1/2+x
22 -x,-1/2+y,-1/2+z
23 -1/2+x,-y,-1/2+z
24 -1/2+x,-1/2+y,-z
_cell_length_a 14.8250(14)
_cell_length_b 14.8250(14)
_cell_length_c 14.8250(14)
_cell_angle_alpha 90
_cell_angle_beta 90
_cell_angle_gamma 90
_cell_formula_units_Z 4
loop_
_atom_type_symbol
_atom_type_radius_bond
C 0.68
H 0.23
F 0.64
Mn 1.61
O 0.68
P 1.05
loop_
_atom_site_label
_atom_site_type_symbol
_atom_site_fract_x
_atom_site_fract_y
_atom_site_fract_z
Mn1 Mn 0.50000 0.00000 0.00000
O1 O 0.51125(6) 0.01256(6) 0.14592(6)
C1 C 0.53887(10) -0.05929(10) 0.20719(9)
H1 H 0.5799(10) -0.0968(11) 0.1749(11)
H2 H 0.4831(11) -0.095(1) 0.2223(11)
C2 C 0.57842(12) -0.01106(10) 0.28711(10)
H3 H 0.6402(12) 0.0070(11) 0.2761(11)
H4 H 0.5778(11) -0.0460(12) 0.3413(12)
C3 C 0.51893(11) 0.07181(11) 0.29427(10)
H5 H 0.5454(11) 0.1210(11) 0.3249(11)
H6 H 0.4622(13) 0.0581(12) 0.3228(12)
C4 C 0.50179(12) 0.09645(10) 0.19695(10)
H7 H 0.5473(12) 0.1373(11) 0.1761(11)
H8 H 0.4439(12) 0.1195(12) 0.1877(11)
P1 P 0.25000 0.25000 0.25000
F1 F 0.25000 0.25000 0.14274(9)
P2 P 0.75000 0.25000 0.25000
F2 F 0.67434(7) 0.25011(6) 0.17398(7)
F3 F 0.75000 0.14222(7) 0.25000
O1E O 0.48744(6) 0.14592(6) -0.01125(6)
O1F O 0.35408(6) -0.01125(6) 0.01256(6)
O1L O 0.48875(6) -0.01256(6) -0.14592(6)
O1Q O 0.51256(6) -0.14592(6) 0.01125(6)
O1R O 0.64592(6) 0.01125(6) -0.01256(6)
C1E C 0.55929(10) 0.20719(10) -0.03887(9)
C1F C 0.29281(10) -0.03887(10) -0.05929(9)
C1L C 0.46113(10) 0.05929(10) -0.20719(9)
C1Q C 0.44071(10) -0.20719(10) 0.03887(9)
C1R C 0.70719(10) 0.03887(10) 0.05929(9)
H1E H 0.5968(10) 0.1749(11) -0.0799(11)
H1F H 0.3251(10) -0.0799(11) -0.0968(11)
H1L H 0.4201(10) 0.0968(11) -0.1749(11)
H1Q H 0.4032(10) -0.1749(11) 0.0799(11)
H1R H 0.6749(10) 0.0799(11) 0.0968(11)
H2E H 0.5950(11) 0.2223(10) 0.0169(11)
H2F H 0.2777(11) 0.0169(10) -0.0950(11)
H2L H 0.5169(11) 0.095(1) -0.2223(11)
H2Q H 0.4050(11) -0.2223(10) -0.0169(11)
H2R H 0.7223(11) -0.0169(10) 0.0950(11)
C2E C 0.51106(12) 0.28711(10) -0.07842(10)
C2F C 0.21289(12) -0.07842(10) -0.01106(10)
C2L C 0.42158(12) 0.01106(10) -0.28711(10)
C2Q C 0.48894(12) -0.28711(10) 0.07842(10)
C2R C 0.78711(12) 0.07842(10) 0.01106(10)
H3E H 0.4930(12) 0.2761(11) -0.1402(11)
H3F H 0.2239(12) -0.1402(11) 0.0070(11)
H3L H 0.3598(12) -0.0070(11) -0.2761(11)
H3Q H 0.5070(12) -0.2761(11) 0.1402(11)
H3R H 0.7761(12) 0.1402(11) -0.0070(11)
H4E H 0.5460(11) 0.3413(12) -0.0778(12)
H4F H 0.1587(11) -0.0778(12) -0.0460(12)
H4L H 0.4222(11) 0.0460(12) -0.3413(12)
H4Q H 0.4540(11) -0.3413(12) 0.0778(12)
H4R H 0.8413(11) 0.0778(12) 0.0460(12)
C3E C 0.42819(11) 0.29427(11) -0.01893(10)
C3F C 0.20573(11) -0.01893(11) 0.07181(10)
C3L C 0.48107(11) -0.07181(11) -0.29427(10)
C3Q C 0.57181(11) -0.29427(11) 0.01893(10)
C3R C 0.79427(11) 0.01893(11) -0.07181(10)
H5E H 0.3790(11) 0.3249(11) -0.0454(11)
H5F H 0.1751(11) -0.0454(11) 0.1210(11)
H5L H 0.4546(11) -0.1210(11) -0.3249(11)
H5Q H 0.6210(11) -0.3249(11) 0.0454(11)
H5R H 0.8249(11) 0.0454(11) -0.1210(11)
H6E H 0.4419(13) 0.3228(12) 0.0378(12)
H6F H 0.1772(13) 0.0378(12) 0.0581(12)
H6L H 0.5378(13) -0.0581(12) -0.3228(12)
H6Q H 0.5581(13) -0.3228(12) -0.0378(12)
H6R H 0.8228(13) -0.0378(12) -0.0581(12)
C4E C 0.40355(12) 0.19695(10) -0.00179(10)
C4F C 0.30305(12) -0.00179(10) 0.09645(10)
C4L C 0.49821(12) -0.09645(10) -0.19695(10)
C4Q C 0.59645(12) -0.19695(10) 0.00179(10)
C4R C 0.69695(12) 0.00179(10) -0.09645(10)
H7E H 0.3627(12) 0.1761(11) -0.0473(11)
H7F H 0.3239(12) -0.0473(11) 0.1373(11)
H7L H 0.4527(12) -0.1373(11) -0.1761(11)
H7Q H 0.6373(12) -0.1761(11) 0.0473(11)
H7R H 0.6761(12) 0.0473(11) -0.1373(11)
H8E H 0.3805(12) 0.1877(12) 0.0561(11)
H8F H 0.3123(12) 0.0561(12) 0.1195(11)
H8L H 0.5561(12) -0.1195(12) -0.1877(11)
H8Q H 0.6195(12) -0.1877(12) -0.0561(11)
H8R H 0.6877(12) -0.0561(12) -0.1195(11)
F1A F 0.14274 0.25000 0.25000(9)
F1B F 0.25000 0.14274 0.25000(9)
F1C F 0.25000 0.35726 0.25000(9)
F1F F 0.35726 0.25000 0.25000(9)
F1I F 0.25000 0.25000 0.35726(9)
F2I F 0.67434(7) 0.24989(6) 0.32602(7)
F2J F 0.82566(7) 0.25011(6) 0.32602(7)
F2K F 0.82566(7) 0.24989(6) 0.17398(7)
F3I F 0.75000 0.35778(7) 0.25000
#END

data_CSD_CIF_XASZIC01
_audit_creation_date 2012-03-29
_audit_creation_method CSD-ConQuest-V1
_database_code_CSD XASZIC01
_database_code_depnum_ccdc_archive 'CCDC 847995'
_chemical_formula_sum 'C24 H48 F12 Mn1 O6 P2'
_chemical_formula_moiety
;
C24 H48 Mn1 O6 2+,2(F6 P1 1-)
;
_journal_coden_Cambridge 1078
_journal_year 2011
_journal_name_full 'CSD Communication(Private Communication) '
loop_
_publ_author_name
"S.Cope"
"C.Moore"
"J.O'Connor"
"A.Rheingold"
_chemical_name_systematic
;
hexakis(tetrahydrofuran)-manganese(ii) bis(hexafluorophosphate)
;
_cell_volume   3375.000
_exptl_crystal_colour 'colorless'
_exptl_crystal_density_diffrn 1.53
_exptl_special_details
;
contribution from UC San Diego, 5128 Urey Hall MC 0358, 9500 Gilman Drive, La 
Jolla CA 92093-0358
;
_exptl_crystal_description 'octahedral block'
_diffrn_ambient_temperature 225
#These two values have been output from a single CSD field.
_refine_ls_R_factor_gt 0.0416
_refine_ls_wR_factor_gt 0.0416
_symmetry_cell_setting cubic
_symmetry_space_group_name_H-M 'P n -3'
_symmetry_Int_Tables_number 201
loop_
_symmetry_equiv_pos_site_id
_symmetry_equiv_pos_as_xyz
1 x,y,z
2 1/2-x,1/2-y,z
3 1/2-x,y,1/2-z
4 x,1/2-y,1/2-z
5 z,x,y
6 z,1/2-x,1/2-y
7 1/2-z,1/2-x,y
8 1/2-z,x,1/2-y
9 y,z,x
10 1/2-y,z,1/2-x
11 y,1/2-z,1/2-x
12 1/2-y,1/2-z,x
13 -x,-y,-z
14 -1/2+x,-1/2+y,-z
15 -1/2+x,-y,-1/2+z
16 -x,-1/2+y,-1/2+z
17 -z,-x,-y
18 -z,-1/2+x,-1/2+y
19 -1/2+z,-1/2+x,-y
20 -1/2+z,-x,-1/2+y
21 -y,-z,-x
22 -1/2+y,-z,-1/2+x
23 -y,-1/2+z,-1/2+x
24 -1/2+y,-1/2+z,-x
_cell_length_a 15.000(2)
_cell_length_b 15.000(2)
_cell_length_c 15.000(2)
_cell_angle_alpha 90
_cell_angle_beta 90
_cell_angle_gamma 90
_cell_formula_units_Z 4
loop_
_atom_type_symbol
_atom_type_radius_bond
C 0.68
H 0.23
F 0.64
Mn 1.61
O 0.68
P 1.05
loop_
_atom_site_label
_atom_site_type_symbol
_atom_site_fract_x
_atom_site_fract_y
_atom_site_fract_z
Mn1 Mn 0.00000 0.00000 0.00000
O1 O 0.14491(11) -0.01182(11) 0.01325(11)
C1 C 0.1949(2) -0.0041(3) 0.0966(2)
H1 H 0.184(2) 0.050(2) 0.123(2)
H2 H 0.173(2) -0.055(2) 0.136(2)
C2 C 0.2064(2) -0.0353(3) -0.0583(2)
H3 H 0.218(2) 0.019(2) -0.096(2)
H4 H 0.177(2) -0.080(2) -0.096(2)
C3 C 0.2870(2) -0.0710(4) -0.0125(3)
H5 H 0.340(3) -0.063(2) -0.047(3)
H6 H 0.272(3) -0.143(4) 0.007(3)
C4 C 0.2905(2) -0.0186(3) 0.0724(3)
H7 H 0.323(3) -0.046(3) 0.120(3)
H8 H 0.316(3) 0.037(3) 0.060(3)
P1 P 0.25000 0.25000 0.25000
F1 F 0.25000 0.14546(19) 0.25000
P2 P 0.25000 -0.25000 0.25000
F2 F 0.25000 -0.25000 0.14342(15)
F3 F 0.17579(16) -0.32415(17) 0.24998(13)
O1D O 0.01325(11) 0.14491(11) -0.01182(11)
O1H O -0.01182(11) 0.01325(11) 0.14491(11)
O1L O -0.14491(11) 0.01182(11) -0.01325(11)
O1P O -0.01325(11) -0.14491(11) 0.01182(11)
O1T O 0.01182(11) -0.01325(11) -0.14491(11)
C1D C 0.0966(2) 0.1949(3) -0.0041(2)
C1H C -0.0041(2) 0.0966(3) 0.1949(2)
C1L C -0.1949(2) 0.0041(3) -0.0966(2)
C1P C -0.0966(2) -0.1949(3) 0.0041(2)
C1T C 0.0041(2) -0.0966(3) -0.1949(2)
H1D H 0.123(2) 0.184(2) 0.050(2)
H1H H 0.050(2) 0.123(2) 0.184(2)
H1L H -0.184(2) -0.050(2) -0.123(2)
H1P H -0.123(2) -0.184(2) -0.050(2)
H1T H -0.050(2) -0.123(2) -0.184(2)
H2D H 0.136(2) 0.173(2) -0.055(2)
H2H H -0.055(2) 0.136(2) 0.173(2)
H2L H -0.173(2) 0.055(2) -0.136(2)
H2P H -0.136(2) -0.173(2) 0.055(2)
H2T H 0.055(2) -0.136(2) -0.173(2)
C2D C -0.0583(2) 0.2064(3) -0.0353(2)
C2H C -0.0353(2) -0.0583(3) 0.2064(2)
C2L C -0.2064(2) 0.0353(3) 0.0583(2)
C2P C 0.0583(2) -0.2064(3) 0.0353(2)
C2T C 0.0353(2) 0.0583(3) -0.2064(2)
H3D H -0.096(2) 0.218(2) 0.019(2)
H3H H 0.019(2) -0.096(2) 0.218(2)
H3L H -0.218(2) -0.019(2) 0.096(2)
H3P H 0.096(2) -0.218(2) -0.019(2)
H3T H -0.019(2) 0.096(2) -0.218(2)
H4D H -0.096(2) 0.177(2) -0.080(2)
H4H H -0.080(2) -0.096(2) 0.177(2)
H4L H -0.177(2) 0.080(2) 0.096(2)
H4P H 0.096(2) -0.177(2) 0.080(2)
H4T H 0.080(2) 0.096(2) -0.177(2)
C3D C -0.0125(2) 0.2870(4) -0.0710(3)
C3H C -0.0710(2) -0.0125(4) 0.2870(3)
C3L C -0.2870(2) 0.0710(4) 0.0125(3)
C3P C 0.0125(2) -0.2870(4) 0.0710(3)
C3T C 0.0710(2) 0.0125(4) -0.2870(3)
H5D H -0.047(3) 0.340(2) -0.063(3)
H5H H -0.063(3) -0.047(2) 0.340(3)
H5L H -0.340(3) 0.063(2) 0.047(3)
H5P H 0.047(3) -0.340(2) 0.063(3)
H5T H 0.063(3) 0.047(2) -0.340(3)
H6D H 0.007(3) 0.272(4) -0.143(3)
H6H H -0.143(3) 0.007(4) 0.272(3)
H6L H -0.272(3) 0.143(4) -0.007(3)
H6P H -0.007(3) -0.272(4) 0.143(3)
H6T H 0.143(3) -0.007(4) -0.272(3)
C4D C 0.0724(2) 0.2905(3) -0.0186(3)
C4H C -0.0186(2) 0.0724(3) 0.2905(3)
C4L C -0.2905(2) 0.0186(3) -0.0724(3)
C4P C -0.0724(2) -0.2905(3) 0.0186(3)
C4T C 0.0186(2) -0.0724(3) -0.2905(3)
H7D H 0.120(3) 0.323(3) -0.046(3)
H7H H -0.046(3) 0.120(3) 0.323(3)
H7L H -0.323(3) 0.046(3) -0.120(3)
H7P H -0.120(3) -0.323(3) 0.046(3)
H7T H 0.046(3) -0.120(3) -0.323(3)
H8D H 0.060(3) 0.316(3) 0.037(3)
H8H H 0.037(3) 0.060(3) 0.316(3)
H8L H -0.316(3) -0.037(3) -0.060(3)
H8P H -0.060(3) -0.316(3) -0.037(3)
H8T H -0.037(3) -0.060(3) -0.316(3)
F1A F 0.25000 0.35454(19) 0.25000
F1D F 0.25000 0.25000(19) 0.14546
F1E F 0.25000 0.25000(19) 0.35454
F1H F 0.14546 0.25000(19) 0.25000
F1I F 0.35454 0.25000(19) 0.25000
F2B F 0.25000 -0.25000 0.35658(15)
F3A F 0.32421(16) -0.17585(17) 0.24998(13)
F3B F 0.32421(16) -0.32415(17) 0.25002(13)
F3C F 0.17579(16) -0.17585(17) 0.25002(13)
#END
