data_BATVID

_audit_creation_date   2012-08-21
_database_code_depnum_ccdc_archive   'CCDC 832352'
_database_code_CSD   BATVID
_chemical_formula_moiety   'C27 H39 N1 O1 U1'
_chemical_name_systematic   'Nitrosyl-tris(\h^5^-tetramethyl-cyclopentadienyl)-uranium'
_journal_coden_Cambridge   4
_journal_volume   134
_journal_year   2012
_journal_page_first   1243
_journal_name_full   'J.Am.Chem.Soc.'
_journal_paper_doi   '10.1021/ja2096128'
_diffrn_ambient_temperature   93
_exptl_crystal_density_diffrn   1.734
_refine_ls_R_factor_gt   0.0158
_refine_ls_wR_factor_gt   0.0158
_diffrn_radiation_probe   x-ray
_symmetry_cell_setting   cubic
_symmetry_space_group_name_H-M   'P 21 3'
_symmetry_Int_Tables_number   198
_space_group_name_Hall   'P 2ac 2ab 3'
_cell_length_a   13.4239(7)
_cell_length_b   13.4239(7)
_cell_length_c   13.4239(7)
_cell_angle_alpha   90
_cell_angle_beta   90
_cell_angle_gamma   90
_cell_volume   2419
_exptl_crystal_colour   brown
_exptl_crystal_description   irregular
_cell_formula_units_Z   4
loop_
_publ_author_name

   N.A.Siladkea
   K.R.Meihaus
   J.W.Zillera
   'Ming Fang'
   F.Furche
   J.R.Long
   W.J.Evans
loop_
_symmetry_equiv_pos_site_id
_symmetry_equiv_pos_as_xyz

   1   x,y,z
   2   z,x,y
   3   y,z,x
   4   '1/2-y,-z,1/2+x'
   5   '1/2+z,1/2-x,-y'
   6   '-y,1/2+z,1/2-x'
   7   '1/2-z,-x,1/2+y'
   8   '-z,1/2+x,1/2-y'
   9   '1/2+y,1/2-z,-x'
   10   '1/2+x,1/2-y,-z'
   11   '-x,1/2+y,1/2-z'
   12   '1/2-x,-y,1/2+z'
loop_
_atom_site_label
_atom_site_type_symbol
_atom_site_fract_x
_atom_site_fract_y
_atom_site_fract_z
_atom_site_U_iso_or_equiv
_atom_site_thermal_displace_type

   U1   U   0.239514, 0.239514, 0.239514