data_BEQBEH

_audit_creation_date   2018-02-23
_database_code_depnum_ccdc_archive   'CCDC 1578197'
_database_code_CSD   BEQBEH
_chemical_formula_moiety
;
C72 H84 Au4 Co2 N4 O8 P4 S4 2+,10.83(H2 O1),2(Br1 1-)
;
_chemical_name_systematic
;
bis(\m~2~-1,2-bis(Diphenylphosphino)ethane-P,P')-tetrakis(\m~2~-D-penicillaminato)-di-cobalt(iii)-tetra-gold(i) dibromide hydrate
;
_journal_coden_Cambridge   1540
_journal_volume   8
_journal_year   2018
_journal_page_first   2606
_journal_name_full   'Scientific Reports'
_journal_paper_doi   '10.1038/s41598-018-20750-1'
_diffrn_ambient_temperature   100
_exptl_crystal_density_diffrn   1.937
_refine_ls_R_factor_gt   0.04
_refine_ls_wR_factor_gt   0.04
_diffrn_radiation_probe   x-ray
_diffrn_source   synchrotron
_symmetry_cell_setting   cubic
_symmetry_space_group_name_H-M   'F 2 3'
_symmetry_Int_Tables_number   196
_space_group_name_Hall   'F 2 2 3'
_cell_length_a   37.8997(1)
_cell_length_b   37.8997(1)
_cell_length_c   37.8997(1)
_cell_angle_alpha   90
_cell_angle_beta   90
_cell_angle_gamma   90
_cell_volume   54438.6
_exptl_crystal_colour   purple
_exptl_crystal_description   block
_cell_formula_units_Z   24
loop_
_publ_author_name

   S.Yamashita
   Y.Nakazawa
   S.Yamanaka
   M.Okumura
   T.Kojima
   N.Yoshinari
   T.Konno
loop_
_symmetry_equiv_pos_site_id
_symmetry_equiv_pos_as_xyz

   1   x,y,z
   2   -x,-y,z
   3   x,-y,-z
   4   -x,y,-z
   5   y,z,x
   6   -y,-z,x
   7   y,-z,-x
   8   -y,z,-x
   9   z,x,y
   10   -z,x,-y
   11   -z,-x,y
   12   z,-x,-y
   13   'x,1/2+y,1/2+z'
   14   '-x,1/2-y,1/2+z'
   15   'x,1/2-y,1/2-z'
   16   '-x,1/2+y,1/2-z'
   17   'y,1/2+z,1/2+x'
   18   '-y,1/2-z,1/2+x'
   19   'y,1/2-z,1/2-x'
   20   '-y,1/2+z,1/2-x'
   21   'z,1/2+x,1/2+y'
   22   '-z,1/2+x,1/2-y'
   23   '-z,1/2-x,1/2+y'
   24   'z,1/2-x,1/2-y'
   25   '1/2+x,y,1/2+z'
   26   '1/2-x,-y,1/2+z'
   27   '1/2+x,-y,1/2-z'
   28   '1/2-x,y,1/2-z'
   29   '1/2+y,z,1/2+x'
   30   '1/2-y,-z,1/2+x'
   31   '1/2+y,-z,1/2-x'
   32   '1/2-y,z,1/2-x'
   33   '1/2+z,x,1/2+y'
   34   '1/2-z,x,1/2-y'
   35   '1/2-z,-x,1/2+y'
   36   '1/2+z,-x,1/2-y'
   37   '1/2+x,1/2+y,z'
   38   '1/2-x,1/2-y,z'
   39   '1/2+x,1/2-y,-z'
   40   '1/2-x,1/2+y,-z'
   41   '1/2+y,1/2+z,x'
   42   '1/2-y,1/2-z,x'
   43   '1/2+y,1/2-z,-x'
   44   '1/2-y,1/2+z,-x'
   45   '1/2+z,1/2+x,y'
   46   '1/2-z,1/2+x,-y'
   47   '1/2-z,1/2-x,y'
   48   '1/2+z,1/2-x,-y'
loop_
_atom_site_label
_atom_site_type_symbol
_atom_site_fract_x
_atom_site_fract_y
_atom_site_fract_z
_atom_site_U_iso_or_equiv
_atom_site_thermal_displace_type

   Co1   Co   0.12451(2)   0.07496(2)   0.24235(2)   0.0202   Uani
   Au1   Au   0.02995(2)   0.07083(2)   0.22819(2)   0.0223   Uani
   Au2   Au   0.07937(2)   -0.00271(2)   0.26538(2)   0.0209   Uani
   C1   C   0.0743(2)   0.13486(18)   0.26896(18)   0.0257   Uani
   C2   C   0.1065(2)   0.14380(18)   0.2452(2)   0.0287   Uani
   H1   H   0.1119   0.1696   0.2460   0.0340   Uiso
   C3   C   0.1001(2)   0.13178(19)   0.20764(19)   0.0297   Uani
   C4   C   0.0808(2)   0.1477(2)   0.3066(2)   0.0343   Uani
   H2   H   0.1022   0.1365   0.3159   0.0510   Uiso
   H3   H   0.0838   0.1734   0.3066   0.0510   Uiso
   H4   H   0.0606   0.1414   0.3214   0.0510   Uiso
   C5   C   0.0410(2)   0.1523(2)   0.2544(2)   0.0323   Uani
   H5   H   0.0369   0.1440   0.2302   0.0480   Uiso
   H6   H   0.0208   0.1460   0.2693   0.0480   Uiso
   H7   H   0.0440   0.1779   0.2544   0.0480   Uiso
   N1   N   0.13725(17)   0.12264(16)   0.25772(17)   0.0263   Uani
   H8   H   0.1395   0.1238   0.2816   0.0320   Uiso
   H9   H   0.1577   0.1300   0.2475   0.0320   Uiso
   O1   O   0.10822(14)   0.09906(13)   0.20119(13)   0.0247   Uani
   O2   O   0.0868(2)   0.15143(17)   0.18483(17)   0.0450   Uani
   S1   S   0.07191(5)   0.08556(4)   0.27041(4)   0.0236   Uani
   C6   C   0.15432(16)   0.00165(19)   0.21814(16)   0.0220   Uani
   C7   C   0.17799(17)   0.02849(18)   0.23731(17)   0.0227   Uani
   H10   H   0.2034   0.0222   0.2342   0.0270   Uiso
   C8   C   0.16868(19)   0.03059(19)   0.27640(17)   0.0240   Uani
   C9   C   0.16564(19)   -0.0021(2)   0.17964(18)   0.0287   Uani
   H11   H   0.1651   0.0211   0.1682   0.0430   Uiso
   H12   H   0.1896   -0.0117   0.1786   0.0430   Uiso
   H13   H   0.1494   -0.0181   0.1674   0.0430   Uiso
   C10   C   0.15508(19)   -0.0345(2)   0.23622(19)   0.0267   Uani
   H14   H   0.1478   -0.0320   0.2609   0.0400   Uiso
   H15   H   0.1389   -0.0506   0.2241   0.0400   Uiso
   H16   H   0.1791   -0.0442   0.2352   0.0400   Uiso
   N2   N   0.17101(15)   0.06475(16)   0.22318(15)   0.0227   Uani
   H17   H   0.1708   0.0649   0.1992   0.0270   Uiso
   H18   H   0.1874   0.0805   0.2310   0.0270   Uiso
   O3   O   0.14327(13)   0.05249(14)   0.28331(12)   0.0235   Uani
   O4   O   0.18306(15)   0.01157(15)   0.29819(14)   0.0290   Uani
   S2   S   0.10917(4)   0.02212(4)   0.21805(4)   0.0212   Uani
   P1   P   -0.01002(5)   0.05748(5)   0.18576(4)   0.0218   Uani
   P2   P   0.05207(5)   -0.02642(5)   0.31269(5)   0.0230   Uani
   C11   C   0.00496(17)   0.07168(18)   0.14283(17)   0.0233   Uani
   C12   C   -0.0103(2)   0.0580(2)   0.1118(2)   0.0307   Uani
   H19   H   -0.0275   0.0398   0.1130   0.0370   Uiso
   C13   C   0.0002(2)   0.0716(3)   0.07907(19)   0.0350   Uani
   H20   H   -0.0096   0.0623   0.0579   0.0420   Uiso
   C14   C   0.0249(2)   0.0987(2)   0.0777(2)   0.0343   Uani
   H21   H   0.0315   0.1083   0.0555   0.0410   Uiso
   C15   C   0.0401(2)   0.1118(2)   0.1083(2)   0.0353   Uani
   H22   H   0.0570   0.1303   0.1070   0.0420   Uiso
   C16   C   0.0306(2)   0.09775(18)   0.1407(2)   0.0273   Uani
   H23   H   0.0417   0.1060   0.1616   0.0330   Uiso
   C17   C   -0.05316(19)   0.0779(2)   0.1901(2)   0.0287   Uani
   C18   C   -0.0807(2)   0.0694(3)   0.1670(2)   0.0373   Uani
   H24   H   -0.0783   0.0504   0.1508   0.0450   Uiso
   C19   C   -0.1118(2)   0.0892(3)   0.1681(3)   0.0453   Uani
   H25   H   -0.1303   0.0841   0.1519   0.0540   Uiso
   C20   C   -0.1160(3)   0.1153(3)   0.1920(4)   0.0587   Uani
   H26   H   -0.1375   0.1281   0.1927   0.0700   Uiso
   C21   C   -0.0896(4)   0.1237(3)   0.2150(4)   0.0587   Uani
   H27   H   -0.0929   0.1423   0.2314   0.0700   Uiso
   C22   C   -0.0574(3)   0.1049(3)   0.2147(3)   0.0420   Uani
   H28   H   -0.0391   0.1105   0.2308   0.0500   Uiso
   C23   C   -0.01733(18)   0.01015(18)   0.18329(19)   0.0247   Uani
   H29   H   -0.0318   0.0026   0.2037   0.0290   Uiso
   H30   H   -0.0306   0.0046   0.1615   0.0290   Uiso
   C24   C   0.06800(17)   -0.00733(17)   0.35345(17)   0.0230   Uani
   C25   C   0.0942(2)   0.0186(2)   0.3528(2)   0.0297   Uani
   H31   H   0.1039   0.0263   0.3309   0.0360   Uiso
   C26   C   0.1061(2)   0.0332(2)   0.3848(2)   0.0337   Uani
   H32   H   0.1238   0.0509   0.3845   0.0400   Uiso
   C27   C   0.0922(2)   0.0219(2)   0.4166(2)   0.0297   Uani
   H33   H   0.1009   0.0313   0.4381   0.0360   Uiso
   C28   C   0.06560(19)   -0.0032(2)   0.41720(18)   0.0287   Uani
   H34   H   0.0555   -0.0102   0.4390   0.0340   Uiso
   C29   C   0.0538(2)   -0.0180(2)   0.38598(19)   0.0287   Uani
   H35   H   0.0359   -0.0355   0.3866   0.0350   Uiso
   C30   C   0.0589(2)   -0.07340(18)   0.31608(19)   0.0273   Uani
   C31   C   0.0927(3)   -0.0859(3)   0.3130(4)   0.0593   Uani
   H36   H   0.1115   -0.0698   0.3092   0.0710   Uiso
   C32   C   0.0999(4)   -0.1215(3)   0.3154(5)   0.0687   Uani
   H37   H   0.1236   -0.1297   0.3141   0.0830   Uiso
   C33   C   0.0723(3)   -0.1455(2)   0.3199(3)   0.0470   Uani
   H38   H   0.0770   -0.1701   0.3207   0.0560   Uiso
   C34   C   0.0391(3)   -0.1336(2)   0.3231(3)   0.0463   Uani
   H39   H   0.0204   -0.1500   0.3265   0.0560   Uiso
   C35   C   0.0314(2)   -0.0971(2)   0.3213(3)   0.0403   Uani
   H40   H   0.0078   -0.0889   0.3237   0.0490   Uiso
   C36   C   0.00468(17)   -0.01994(17)   0.31338(18)   0.0240   Uani
   H41   H   -0.0060   -0.0314   0.2924   0.0290   Uiso
   H42   H   -0.0053   -0.0312   0.3347   0.0290   Uiso
   P1A   P   0.01002(5)   -0.05748(5)   0.18576(4)   0.0218   Uani
   C11A   C   -0.00496(17)   -0.07168(18)   0.14283(17)   0.0233   Uani
   C12A   C   0.0103(2)   -0.0580(2)   0.1118(2)   0.0307   Uani
   H19A   H   0.0275   -0.0398   0.1130   0.0370   Uiso
   C13A   C   -0.0002(2)   -0.0716(3)   0.07907(19)   0.0350   Uani
   H20A   H   0.0096   -0.0623   0.0579   0.0420   Uiso
   C14A   C   -0.0249(2)   -0.0987(2)   0.0777(2)   0.0343   Uani
   H21A   H   -0.0315   -0.1083   0.0555   0.0410   Uiso
   C15A   C   -0.0401(2)   -0.1118(2)   0.1083(2)   0.0353   Uani
   H22A   H   -0.0570   -0.1303   0.1070   0.0420   Uiso
   C16A   C   -0.0306(2)   -0.09775(18)   0.1407(2)   0.0273   Uani
   H23A   H   -0.0417   -0.1060   0.1616   0.0330   Uiso
   C17A   C   0.05316(19)   -0.0779(2)   0.1901(2)   0.0287   Uani
   C18A   C   0.0807(2)   -0.0694(3)   0.1670(2)   0.0373   Uani
   H24A   H   0.0783   -0.0504   0.1508   0.0450   Uiso
   C19A   C   0.1118(2)   -0.0892(3)   0.1681(3)   0.0453   Uani
   H25A   H   0.1303   -0.0841   0.1519   0.0540   Uiso
   C20A   C   0.1160(3)   -0.1153(3)   0.1920(4)   0.0587   Uani
   H26A   H   0.1375   -0.1281   0.1927   0.0700   Uiso
   C21A   C   0.0896(4)   -0.1237(3)   0.2150(4)   0.0587   Uani
   H27A   H   0.0929   -0.1423   0.2314   0.0700   Uiso
   C22A   C   0.0574(3)   -0.1049(3)   0.2147(3)   0.0420   Uani
   H28A   H   0.0391   -0.1105   0.2308   0.0500   Uiso
   C23A   C   0.01733(18)   -0.01015(18)   0.18329(19)   0.0247   Uani
   H29A   H   0.0318   -0.0026   0.2037   0.0290   Uiso
   H30A   H   0.0306   -0.0046   0.1615   0.0290   Uiso
   P2A   P   -0.05207(5)   0.02642(5)   0.31269(5)   0.0230   Uani
   C24A   C   -0.06800(17)   0.00733(17)   0.35345(17)   0.0230   Uani
   C25A   C   -0.0942(2)   -0.0186(2)   0.3528(2)   0.0297   Uani
   H31A   H   -0.1039   -0.0263   0.3309   0.0360   Uiso
   C26A   C   -0.1061(2)   -0.0332(2)   0.3848(2)   0.0337   Uani
   H32A   H   -0.1238   -0.0509   0.3845   0.0400   Uiso
   C27A   C   -0.0922(2)   -0.0219(2)   0.4166(2)   0.0297   Uani
   H33A   H   -0.1009   -0.0313   0.4381   0.0360   Uiso
   C28A   C   -0.06560(19)   0.0032(2)   0.41720(18)   0.0287   Uani
   H34A   H   -0.0555   0.0102   0.4390   0.0340   Uiso
   C29A   C   -0.0538(2)   0.0180(2)   0.38598(19)   0.0287   Uani
   H35A   H   -0.0359   0.0355   0.3866   0.0350   Uiso
   C30A   C   -0.0589(2)   0.07340(18)   0.31608(19)   0.0273   Uani
   C31A   C   -0.0927(3)   0.0859(3)   0.3130(4)   0.0593   Uani
   H36A   H   -0.1115   0.0698   0.3092   0.0710   Uiso
   C32A   C   -0.0999(4)   0.1215(3)   0.3154(5)   0.0687   Uani
   H37A   H   -0.1236   0.1297   0.3141   0.0830   Uiso
   C33A   C   -0.0723(3)   0.1455(2)   0.3199(3)   0.0470   Uani
   H38A   H   -0.0770   0.1701   0.3207   0.0560   Uiso
   C34A   C   -0.0391(3)   0.1336(2)   0.3231(3)   0.0463   Uani
   H39A   H   -0.0204   0.1500   0.3265   0.0560   Uiso
   C35A   C   -0.0314(2)   0.0971(2)   0.3213(3)   0.0403   Uani
   H40A   H   -0.0078   0.0889   0.3237   0.0490   Uiso
   C36A   C   -0.00468(17)   0.01994(17)   0.31338(18)   0.0240   Uani
   H41A   H   0.0060   0.0314   0.2924   0.0290   Uiso
   H42A   H   0.0053   0.0312   0.3347   0.0290   Uiso
   Co1A   Co   -0.12451(2)   -0.07496(2)   0.24235(2)   0.0202   Uani
   Au1A   Au   -0.02995(2)   -0.07083(2)   0.22819(2)   0.0223   Uani
   Au2A   Au   -0.07937(2)   0.00271(2)   0.26538(2)   0.0209   Uani
   C1A   C   -0.0743(2)   -0.13486(18)   0.26896(18)   0.0257   Uani
   C2A   C   -0.1065(2)   -0.14380(18)   0.2452(2)   0.0287   Uani
   H1A   H   -0.1119   -0.1696   0.2460   0.0340   Uiso
   C3A   C   -0.1001(2)   -0.13178(19)   0.20764(19)   0.0297   Uani
   C4A   C   -0.0808(2)   -0.1477(2)   0.3066(2)   0.0343   Uani
   H2A   H   -0.1022   -0.1365   0.3159   0.0510   Uiso
   H3A   H   -0.0838   -0.1734   0.3066   0.0510   Uiso
   H4A   H   -0.0606   -0.1414   0.3214   0.0510   Uiso
   C5A   C   -0.0410(2)   -0.1523(2)   0.2544(2)   0.0323   Uani
   H5A   H   -0.0369   -0.1440   0.2302   0.0480   Uiso
   H6A   H   -0.0208   -0.1460   0.2693   0.0480   Uiso
   H7A   H   -0.0440   -0.1779   0.2544   0.0480   Uiso
   N1A   N   -0.13725(17)   -0.12264(16)   0.25772(17)   0.0263   Uani
   H8A   H   -0.1395   -0.1238   0.2816   0.0320   Uiso
   H9A   H   -0.1577   -0.1300   0.2475   0.0320   Uiso
   O1A   O   -0.10822(14)   -0.09906(13)   0.20119(13)   0.0247   Uani
   O2A   O   -0.0868(2)   -0.15143(17)   0.18483(17)   0.0450   Uani
   S1A   S   -0.07191(5)   -0.08556(4)   0.27041(4)   0.0236   Uani
   C6A   C   -0.15432(16)   -0.00165(19)   0.21814(16)   0.0220   Uani
   C7A   C   -0.17799(17)   -0.02849(18)   0.23731(17)   0.0227   Uani
   H10A   H   -0.2034   -0.0222   0.2342   0.0270   Uiso
   C8A   C   -0.16868(19)   -0.03059(19)   0.27640(17)   0.0240   Uani
   C9A   C   -0.16564(19)   0.0021(2)   0.17964(18)   0.0287   Uani
   H11A   H   -0.1651   -0.0211   0.1682   0.0430   Uiso
   H12A   H   -0.1896   0.0117   0.1786   0.0430   Uiso
   H13A   H   -0.1494   0.0181   0.1674   0.0430   Uiso
   C10A   C   -0.15508(19)   0.0345(2)   0.23622(19)   0.0267   Uani
   H14A   H   -0.1478   0.0320   0.2609   0.0400   Uiso
   H15A   H   -0.1389   0.0506   0.2241   0.0400   Uiso
   H16A   H   -0.1791   0.0442   0.2352   0.0400   Uiso
   N2A   N   -0.17101(15)   -0.06475(16)   0.22318(15)   0.0227   Uani
   H17A   H   -0.1708   -0.0649   0.1992   0.0270   Uiso
   H18A   H   -0.1874   -0.0805   0.2310   0.0270   Uiso
   O3A   O   -0.14327(13)   -0.05249(14)   0.28331(12)   0.0235   Uani
   O4A   O   -0.18306(15)   -0.01157(15)   0.29819(14)   0.0290   Uani
   S2A   S   -0.10917(4)   -0.02212(4)   0.21805(4)   0.0212   Uani
   Br1   Br   0.09481(5)   0.2500   0.2500   0.0522   Uani
   Br2   Br   0.17431(3)   0.17431(3)   0.32569(3)   0.0477   Uani
   Br3   Br   0.0000   0.0000   0.0000   0.0350   Uani
   Br4   Br   0.0000   0.0000   0.5000   0.0234   Uani
   O5   O   0.2192(7)   0.2192(7)   0.2192(7)   0.1200   Uani
   O6   O   0.1935(7)   0.1520(7)   0.2155(7)   0.2033   Uani
   O7   O   0.1253(15)   0.1253(15)   0.1253(15)   0.3000   Uani
   O8   O   0.2444(2)   -0.0290(2)   0.2862(2)   0.0480   Uani
   O9   O   0.2435(4)   -0.1016(4)   0.2869(4)   0.1020   Uiso
   O10   O   0.1833(15)   -0.1325(13)   0.2640(14)   0.3500   Uiso
   O11   O   0.2919(13)   -0.1535(9)   0.2998(15)   0.3600   Uiso
loop_
_atom_site_aniso_label
_atom_site_aniso_U_11
_atom_site_aniso_U_22
_atom_site_aniso_U_33
_atom_site_aniso_U_23
_atom_site_aniso_U_13
_atom_site_aniso_U_12

   Co1   0.0227(4)   0.0201(4)   0.0177(3)   0.0003(3)   0.0000(3)   0.0003(3)
   Au1   0.02413(11)   0.02146(10)   0.02140(10)   -0.00012(8)   0.00159(8)   0.00084(8)
   Au2   0.02092(10)   0.02229(10)   0.01960(10)   0.00056(8)   0.00122(7)   -0.00294(8)
   C1   0.034(3)   0.021(3)   0.022(3)   -0.005(2)   0.000(2)   0.006(2)
   C2   0.037(3)   0.018(3)   0.031(3)   0.000(2)   0.001(3)   0.001(2)
   C3   0.042(4)   0.025(3)   0.022(3)   0.004(2)   0.006(3)   0.005(3)
   C4   0.041(4)   0.035(4)   0.027(3)   -0.010(3)   -0.003(3)   0.006(3)
   C5   0.039(4)   0.028(3)   0.030(3)   -0.004(3)   -0.004(3)   0.008(3)
   N1   0.028(3)   0.023(2)   0.028(3)   -0.005(2)   0.002(2)   -0.007(2)
   O1   0.030(2)   0.023(2)   0.021(2)   0.0030(17)   0.0011(17)   -0.0002(18)
   O2   0.074(5)   0.028(3)   0.033(3)   0.010(2)   0.005(3)   0.015(3)
   S1   0.0269(7)   0.0230(6)   0.0208(6)   0.0008(5)   0.0010(5)   0.0022(5)
   C6   0.022(2)   0.025(3)   0.019(2)   -0.001(2)   0.0011(19)   0.002(2)
   C7   0.019(2)   0.030(3)   0.019(2)   0.002(2)   -0.0005(19)   0.000(2)
   C8   0.026(3)   0.027(3)   0.019(2)   0.001(2)   -0.003(2)   -0.003(2)
   C9   0.028(3)   0.035(3)   0.023(3)   0.000(3)   0.004(2)   0.001(3)
   C10   0.026(3)   0.030(3)   0.024(3)   0.002(2)   0.000(2)   -0.001(2)
   N2   0.021(2)   0.027(2)   0.020(2)   -0.0003(19)   0.0018(18)   -0.0040(19)
   O3   0.024(2)   0.029(2)   0.0174(18)   0.0011(17)   -0.0003(16)   -0.0034(18)
   O4   0.033(3)   0.031(2)   0.023(2)   0.0031(19)   -0.0080(19)   0.002(2)
   S2   0.0210(6)   0.0253(7)   0.0173(6)   0.0018(5)   -0.0011(5)   -0.0006(5)
   P1   0.0227(7)   0.0217(7)   0.0211(7)   0.0014(6)   0.0020(5)   0.0010(5)
   P2   0.0215(7)   0.0238(7)   0.0238(7)   0.0013(6)   0.0006(6)   -0.0044(6)
   C11   0.023(3)   0.027(3)   0.020(2)   0.003(2)   0.003(2)   0.004(2)
   C12   0.028(3)   0.037(4)   0.027(3)   0.008(3)   0.001(2)   -0.002(3)
   C13   0.033(3)   0.051(4)   0.021(3)   0.003(3)   -0.001(3)   0.003(3)
   C14   0.033(3)   0.044(4)   0.026(3)   0.010(3)   0.007(3)   0.010(3)
   C15   0.043(4)   0.020(3)   0.043(4)   0.002(3)   0.015(3)   -0.001(3)
   C16   0.034(3)   0.020(3)   0.028(3)   -0.001(2)   0.006(3)   0.000(2)
   C17   0.023(3)   0.033(3)   0.030(3)   0.009(3)   0.006(2)   0.007(2)
   C18   0.033(4)   0.041(4)   0.038(4)   0.011(3)   0.002(3)   0.003(3)
   C19   0.029(4)   0.046(5)   0.061(6)   0.023(4)   0.000(4)   0.005(3)
   C20   0.039(5)   0.059(6)   0.078(8)   0.038(6)   0.023(5)   0.029(5)
   C21   0.057(7)   0.055(6)   0.064(7)   -0.009(5)   0.018(6)   0.024(5)
   C22   0.041(4)   0.041(4)   0.044(4)   -0.007(4)   0.008(4)   0.009(4)
   C23   0.024(3)   0.024(3)   0.026(3)   0.000(2)   -0.002(2)   -0.002(2)
   C24   0.022(3)   0.025(3)   0.022(2)   0.001(2)   -0.001(2)   0.000(2)
   C25   0.028(3)   0.033(3)   0.028(3)   -0.003(3)   0.003(3)   -0.010(3)
   C26   0.035(4)   0.034(4)   0.032(3)   -0.007(3)   0.005(3)   -0.007(3)
   C27   0.033(3)   0.031(3)   0.025(3)   -0.003(3)   -0.001(3)   0.006(3)
   C28   0.029(3)   0.036(3)   0.021(3)   0.002(3)   0.001(2)   0.001(3)
   C29   0.030(3)   0.032(3)   0.024(3)   0.007(3)   0.001(2)   -0.005(3)
   C30   0.032(3)   0.022(3)   0.028(3)   0.004(2)   -0.002(2)   -0.004(2)
   C31   0.035(4)   0.032(4)   0.111(11)   0.018(5)   0.014(6)   0.001(3)
   C32   0.046(6)   0.044(6)   0.116(13)   0.021(7)   0.005(7)   0.005(5)
   C33   0.064(6)   0.024(3)   0.053(5)   0.006(3)   -0.008(5)   -0.004(4)
   C34   0.055(6)   0.025(3)   0.059(6)   0.003(4)   -0.011(5)   -0.015(4)
   C35   0.033(4)   0.031(4)   0.057(5)   0.001(4)   -0.003(4)   -0.008(3)
   C36   0.022(3)   0.024(2)   0.026(3)   0.001(2)   -0.003(2)   -0.005(2)
   P1A   0.0227   0.0217   0.0211   -0.0014   -0.002   0.001
   C11A   0.023   0.027   0.02   -0.003   -0.003   0.004
   C12A   0.028   0.037   0.027   -0.008   -0.001   -0.002
   C13A   0.033   0.051   0.021   -0.003   0.001   0.003
   C14A   0.033   0.044   0.026   -0.01   -0.007   0.01
   C15A   0.043   0.02   0.043   -0.002   -0.015   -0.001
   C16A   0.034   0.02   0.028   0.001   -0.006   0
   C17A   0.023   0.033   0.03   -0.009   -0.006   0.007
   C18A   0.033   0.041   0.038   -0.011   -0.002   0.003
   C19A   0.029   0.046   0.061   -0.023   0   0.005
   C20A   0.039   0.059   0.078   -0.038   -0.023   0.029
   C21A   0.057   0.055   0.064   0.009   -0.018   0.024
   C22A   0.041   0.041   0.044   0.007   -0.008   0.009
   C23A   0.024   0.024   0.026   0   0.002   -0.002
   P2A   0.0215   0.0238   0.0238   -0.0013   -0.0006   -0.0044
   C24A   0.022   0.025   0.022   -0.001   0.001   0
   C25A   0.028   0.033   0.028   0.003   -0.003   -0.01
   C26A   0.035   0.034   0.032   0.007   -0.005   -0.007
   C27A   0.033   0.031   0.025   0.003   0.001   0.006
   C28A   0.029   0.036   0.021   -0.002   -0.001   0.001
   C29A   0.03   0.032   0.024   -0.007   -0.001   -0.005
   C30A   0.032   0.022   0.028   -0.004   0.002   -0.004
   C31A   0.035   0.032   0.111   -0.018   -0.014   0.001
   C32A   0.046   0.044   0.116   -0.021   -0.005   0.005
   C33A   0.064   0.024   0.053   -0.006   0.008   -0.004
   C34A   0.055   0.025   0.059   -0.003   0.011   -0.015
   C35A   0.033   0.031   0.057   -0.001   0.003   -0.008
   C36A   0.022   0.024   0.026   -0.001   0.003   -0.005
   Co1A   0.0227   0.0201   0.0177   -0.0003   0   0.0003
   Au1A   0.02413   0.02146   0.0214   0.00012   -0.00159   0.00084
   Au2A   0.02092   0.02229   0.0196   -0.00056   -0.00122   -0.00294
   C1A   0.034   0.021   0.022   0.005   0   0.006
   C2A   0.037   0.018   0.031   0   -0.001   0.001
   C3A   0.042   0.025   0.022   -0.004   -0.006   0.005
   C4A   0.041   0.035   0.027   0.01   0.003   0.006
   C5A   0.039   0.028   0.03   0.004   0.004   0.008
   N1A   0.028   0.023   0.028   0.005   -0.002   -0.007
   O1A   0.03   0.023   0.021   -0.003   -0.0011   -0.0002
   O2A   0.074   0.028   0.033   -0.01   -0.005   0.015
   S1A   0.0269   0.023   0.0208   -0.0008   -0.001   0.0022
   C6A   0.022   0.025   0.019   0.001   -0.0011   0.002
   C7A   0.019   0.03   0.019   -0.002   0.0005   0
   C8A   0.026   0.027   0.019   -0.001   0.003   -0.003
   C9A   0.028   0.035   0.023   0   -0.004   0.001
   C10A   0.026   0.03   0.024   -0.002   0   -0.001
   N2A   0.021   0.027   0.02   0.0003   -0.0018   -0.004
   O3A   0.024   0.029   0.0174   -0.0011   0.0003   -0.0034
   O4A   0.033   0.031   0.023   -0.0031   0.008   0.002
   S2A   0.021   0.0253   0.0173   -0.0018   0.0011   -0.0006
   Br1   0.0727(10)   0.0460(7)   0.0378(6)   -0.0127(6)   0.000   0.000
   Br2   0.0477(4)   0.0477(4)   0.0477(4)   -0.0072(4)   -0.0072(4)   0.0072(4)
   Br3   0.0350(5)   0.0350(5)   0.0350(5)   0.000   0.000   0.000
   Br4   0.0234(4)   0.0234(4)   0.0234(4)   0.000   0.000   0.000
   O5   0.12(4)   0.12(4)   0.12(4)   0.10(5)   0.10(5)   0.10(5)
   O6   0.20(2)   0.20(2)   0.21(2)   0.10(2)   0.123(19)   -0.005(19)
   O7   0.30(4)   0.30(4)   0.30(4)   0.19(5)   0.19(5)   0.19(5)
   O8   0.042(4)   0.051(4)   0.051(4)   -0.005(3)   0.005(3)   0.004(3)
loop_
_geom_bond_atom_site_label_1
_geom_bond_atom_site_label_2
_geom_bond_site_symmetry_1
_geom_bond_site_symmetry_2

   Co1   N1   1_555   1_555
   Au1   S1   1_555   1_555
   Au2   S2   1_555   1_555
   C1   C2   1_555   1_555
   C2   H1   1_555   1_555
   C3   C2   1_555   1_555
   C4   C1   1_555   1_555
   H2   C4   1_555   1_555
   H3   C4   1_555   1_555
   H4   C4   1_555   1_555
   C5   C1   1_555   1_555
   H5   C5   1_555   1_555
   H6   C5   1_555   1_555
   H7   C5   1_555   1_555
   N1   C2   1_555   1_555
   H8   N1   1_555   1_555
   H9   N1   1_555   1_555
   O1   Co1   1_555   1_555
   O2   C3   1_555   1_555
   S1   Co1   1_555   1_555
   C6   C7   1_555   1_555
   C7   H10   1_555   1_555
   C8   C7   1_555   1_555
   C9   C6   1_555   1_555
   H11   C9   1_555   1_555
   H12   C9   1_555   1_555
   H13   C9   1_555   1_555
   C10   C6   1_555   1_555
   H14   C10   1_555   1_555
   H15   C10   1_555   1_555
   H16   C10   1_555   1_555
   N2   Co1   1_555   1_555
   H17   N2   1_555   1_555
   H18   N2   1_555   1_555
   O3   Co1   1_555   1_555
   O4   C8   1_555   1_555
   S2   Co1   1_555   1_555
   P1   Au1   1_555   1_555
   P2   Au2   1_555   1_555
   C11   P1   1_555   1_555
   C12   C11   1_555   1_555
   H19   C12   1_555   1_555
   C13   C12   1_555   1_555
   H20   C13   1_555   1_555
   C14   C13   1_555   1_555
   H21   C14   1_555   1_555
   C15   C14   1_555   1_555
   H22   C15   1_555   1_555
   C16   C11   1_555   1_555
   H23   C16   1_555   1_555
   C17   P1   1_555   1_555
   C18   C17   1_555   1_555
   H24   C18   1_555   1_555
   C19   C18   1_555   1_555
   H25   C19   1_555   1_555
   C20   C19   1_555   1_555
   H26   C20   1_555   1_555
   C21   C20   1_555   1_555
   H27   C21   1_555   1_555
   C22   C17   1_555   1_555
   H28   C22   1_555   1_555
   C23   P1   1_555   1_555
   H29   C23   1_555   1_555
   H30   C23   1_555   1_555
   C24   P2   1_555   1_555
   C25   C24   1_555   1_555
   H31   C25   1_555   1_555
   C26   C25   1_555   1_555
   H32   C26   1_555   1_555
   C27   C26   1_555   1_555
   H33   C27   1_555   1_555
   C28   C27   1_555   1_555
   H34   C28   1_555   1_555
   C29   C24   1_555   1_555
   H35   C29   1_555   1_555
   C30   P2   1_555   1_555
   C31   C30   1_555   1_555
   H36   C31   1_555   1_555
   C32   C31   1_555   1_555
   H37   C32   1_555   1_555
   C33   C32   1_555   1_555
   H38   C33   1_555   1_555
   C34   C33   1_555   1_555
   H39   C34   1_555   1_555
   C35   C30   1_555   1_555
   H40   C35   1_555   1_555
   C36   P2   1_555   1_555
   H41   C36   1_555   1_555
   H42   C36   1_555   1_555
   P1A   C11A   1_555   1_555
   C11A   C12A   1_555   1_555
   C12A   H19A   1_555   1_555
   C13A   C12A   1_555   1_555
   H20A   C13A   1_555   1_555
   C14A   C13A   1_555   1_555
   H21A   C14A   1_555   1_555
   C15A   C14A   1_555   1_555
   H22A   C15A   1_555   1_555
   C16A   C11A   1_555   1_555
   H23A   C16A   1_555   1_555
   C17A   P1A   1_555   1_555
   C18A   C17A   1_555   1_555
   H24A   C18A   1_555   1_555
   C19A   C18A   1_555   1_555
   H25A   C19A   1_555   1_555
   C20A   C19A   1_555   1_555
   H26A   C20A   1_555   1_555
   C21A   C20A   1_555   1_555
   H27A   C21A   1_555   1_555
   C22A   C17A   1_555   1_555
   H28A   C22A   1_555   1_555
   C23A   C23   1_555   1_555
   H29A   C23A   1_555   1_555
   H30A   C23A   1_555   1_555
   P2A   C24A   1_555   1_555
   C24A   C25A   1_555   1_555
   C25A   H31A   1_555   1_555
   C26A   C25A   1_555   1_555
   H32A   C26A   1_555   1_555
   C27A   C26A   1_555   1_555
   H33A   C27A   1_555   1_555
   C28A   C27A   1_555   1_555
   H34A   C28A   1_555   1_555
   C29A   C24A   1_555   1_555
   H35A   C29A   1_555   1_555
   C30A   P2A   1_555   1_555
   C31A   C30A   1_555   1_555
   H36A   C31A   1_555   1_555
   C32A   C31A   1_555   1_555
   H37A   C32A   1_555   1_555
   C33A   C32A   1_555   1_555
   H38A   C33A   1_555   1_555
   C34A   C33A   1_555   1_555
   H39A   C34A   1_555   1_555
   C35A   C30A   1_555   1_555
   H40A   C35A   1_555   1_555
   C36A   C36   1_555   1_555
   H41A   C36A   1_555   1_555
   H42A   C36A   1_555   1_555
   Co1A   N1A   1_555   1_555
   Au1A   P1A   1_555   1_555
   Au2A   P2A   1_555   1_555
   C1A   C2A   1_555   1_555
   C2A   H1A   1_555   1_555
   C3A   C2A   1_555   1_555
   C4A   C1A   1_555   1_555
   H2A   C4A   1_555   1_555
   H3A   C4A   1_555   1_555
   H4A   C4A   1_555   1_555
   C5A   C1A   1_555   1_555
   H5A   C5A   1_555   1_555
   H6A   C5A   1_555   1_555
   H7A   C5A   1_555   1_555
   N1A   C2A   1_555   1_555
   H8A   N1A   1_555   1_555
   H9A   N1A   1_555   1_555
   O1A   Co1A   1_555   1_555
   O2A   C3A   1_555   1_555
   S1A   Co1A   1_555   1_555
   C6A   C7A   1_555   1_555
   C7A   H10A   1_555   1_555
   C8A   C7A   1_555   1_555
   C9A   C6A   1_555   1_555
   H11A   C9A   1_555   1_555
   H12A   C9A   1_555   1_555
   H13A   C9A   1_555   1_555
   C10A   C6A   1_555   1_555
   H14A   C10A   1_555   1_555
   H15A   C10A   1_555   1_555
   H16A   C10A   1_555   1_555
   N2A   Co1A   1_555   1_555
   H17A   N2A   1_555   1_555
   H18A   N2A   1_555   1_555
   O3A   Co1A   1_555   1_555
   O4A   C8A   1_555   1_555
   S2A   Co1A   1_555   1_555
   C1   S1   1_555   1_555
   C3   O1   1_555   1_555
   C6   S2   1_555   1_555
   C7   N2   1_555   1_555
   C8   O3   1_555   1_555
   C15   C16   1_555   1_555
   C21   C22   1_555   1_555
   C28   C29   1_555   1_555
   C34   C35   1_555   1_555
   P1A   C23A   1_555   1_555
   C15A   C16A   1_555   1_555
   C21A   C22A   1_555   1_555
   P2A   C36A   1_555   1_555
   C28A   C29A   1_555   1_555
   C34A   C35A   1_555   1_555
   Au1A   S1A   1_555   1_555
   Au2A   S2A   1_555   1_555
   C1A   S1A   1_555   1_555
   C3A   O1A   1_555   1_555
   C6A   S2A   1_555   1_555
   C7A   N2A   1_555   1_555
   C8A   O3A   1_555   1_555
