data_GOLSUY

_audit_creation_date   2019-06-18
_database_code_depnum_ccdc_archive   'CCDC 1879027'
_database_code_CSD   GOLSUY
_chemical_formula_moiety   '2(C4 H12 N1 1+),Cl6 Hf1 2-'
_chemical_name_systematic   'bis(tetramethylammonium) hexachloro-hafnium(iv)'
_journal_coden_Cambridge   1290
_journal_year   2017
_journal_page_first   4834
_journal_name_full   'Eur.J.Inorg.Chem.'
_journal_paper_doi   '10.1002/ejic.201700764'
_chemical_absolute_configuration   unk
_diffrn_ambient_temperature   389
_exptl_crystal_density_diffrn   1.634
_refine_ls_R_factor_gt   0.0273
_refine_ls_wR_factor_gt   0.0273
_diffrn_radiation_probe   x-ray
_symmetry_cell_setting   cubic
_symmetry_space_group_name_H-M   'F m -3 m'
_symmetry_Int_Tables_number   225
_space_group_name_Hall   '-F 4 2 3'
_cell_length_a   12.9926(10)
_cell_length_b   12.9926(10)
_cell_length_c   12.9926(10)
_cell_angle_alpha   90
_cell_angle_beta   90
_cell_angle_gamma   90
_cell_volume   2193.25
_exptl_crystal_colour   colorless
_exptl_crystal_description   prismatic
_cell_formula_units_Z   4
loop_
_publ_author_name

   M.Autillo
   R.E.Wilson
loop_
_symmetry_equiv_pos_site_id
_symmetry_equiv_pos_as_xyz

   1   x,y,z
   2   -x,-y,z
   3   -x,y,-z
   4   x,-y,-z
   5   z,x,y
   6   z,-x,-y
   7   -z,-x,y
   8   -z,x,-y
   9   y,z,x
   10   -y,z,-x
   11   y,-z,-x
   12   -y,-z,x
   13   y,x,-z
   14   -y,-x,-z
   15   y,-x,z
   16   -y,x,z
   17   x,z,-y
   18   -x,z,y
   19   -x,-z,-y
   20   x,-z,y
   21   z,y,-x
   22   z,-y,x
   23   -z,y,x
   24   -z,-y,-x
   25   'x,1/2+y,1/2+z'
   26   '-x,1/2-y,1/2+z'
   27   '-x,1/2+y,1/2-z'
   28   'x,1/2-y,1/2-z'
   29   'z,1/2+x,1/2+y'
   30   'z,1/2-x,1/2-y'
   31   '-z,1/2-x,1/2+y'
   32   '-z,1/2+x,1/2-y'
   33   'y,1/2+z,1/2+x'
   34   '-y,1/2+z,1/2-x'
   35   'y,1/2-z,1/2-x'
   36   '-y,1/2-z,1/2+x'
   37   'y,1/2+x,1/2-z'
   38   '-y,1/2-x,1/2-z'
   39   'y,1/2-x,1/2+z'
   40   '-y,1/2+x,1/2+z'
   41   'x,1/2+z,1/2-y'
   42   '-x,1/2+z,1/2+y'
   43   '-x,1/2-z,1/2-y'
   44   'x,1/2-z,1/2+y'
   45   'z,1/2+y,1/2-x'
   46   'z,1/2-y,1/2+x'
   47   '-z,1/2+y,1/2+x'
   48   '-z,1/2-y,1/2-x'
   49   '1/2+x,y,1/2+z'
   50   '1/2-x,-y,1/2+z'
   51   '1/2-x,y,1/2-z'
   52   '1/2+x,-y,1/2-z'
   53   '1/2+z,x,1/2+y'
   54   '1/2+z,-x,1/2-y'
   55   '1/2-z,-x,1/2+y'
   56   '1/2-z,x,1/2-y'
   57   '1/2+y,z,1/2+x'
   58   '1/2-y,z,1/2-x'
   59   '1/2+y,-z,1/2-x'
   60   '1/2-y,-z,1/2+x'
   61   '1/2+y,x,1/2-z'
   62   '1/2-y,-x,1/2-z'
   63   '1/2+y,-x,1/2+z'
   64   '1/2-y,x,1/2+z'
   65   '1/2+x,z,1/2-y'
   66   '1/2-x,z,1/2+y'
   67   '1/2-x,-z,1/2-y'
   68   '1/2+x,-z,1/2+y'
   69   '1/2+z,y,1/2-x'
   70   '1/2+z,-y,1/2+x'
   71   '1/2-z,y,1/2+x'
   72   '1/2-z,-y,1/2-x'
   73   '1/2+x,1/2+y,z'
   74   '1/2-x,1/2-y,z'
   75   '1/2-x,1/2+y,-z'
   76   '1/2+x,1/2-y,-z'
   77   '1/2+z,1/2+x,y'
   78   '1/2+z,1/2-x,-y'
   79   '1/2-z,1/2-x,y'
   80   '1/2-z,1/2+x,-y'
   81   '1/2+y,1/2+z,x'
   82   '1/2-y,1/2+z,-x'
   83   '1/2+y,1/2-z,-x'
   84   '1/2-y,1/2-z,x'
   85   '1/2+y,1/2+x,-z'
   86   '1/2-y,1/2-x,-z'
   87   '1/2+y,1/2-x,z'
   88   '1/2-y,1/2+x,z'
   89   '1/2+x,1/2+z,-y'
   90   '1/2-x,1/2+z,y'
   91   '1/2-x,1/2-z,-y'
   92   '1/2+x,1/2-z,y'
   93   '1/2+z,1/2+y,-x'
   94   '1/2+z,1/2-y,x'
   95   '1/2-z,1/2+y,x'
   96   '1/2-z,1/2-y,-x'
   97   -x,-y,-z
   98   x,y,-z
   99   x,-y,z
   100   -x,y,z
   101   -z,-x,-y
   102   -z,x,y
   103   z,x,-y
   104   z,-x,y
   105   -y,-z,-x
   106   y,-z,x
   107   -y,z,x
   108   y,z,-x
   109   -y,-x,z
   110   y,x,z
   111   -y,x,-z
   112   y,-x,-z
   113   -x,-z,y
   114   x,-z,-y
   115   x,z,y
   116   -x,z,-y
   117   -z,-y,x
   118   -z,y,-x
   119   z,-y,-x
   120   z,y,x
   121   '-x,1/2-y,1/2-z'
   122   'x,1/2+y,1/2-z'
   123   'x,1/2-y,1/2+z'
   124   '-x,1/2+y,1/2+z'
   125   '-z,1/2-x,1/2-y'
   126   '-z,1/2+x,1/2+y'
   127   'z,1/2+x,1/2-y'
   128   'z,1/2-x,1/2+y'
   129   '-y,1/2-z,1/2-x'
   130   'y,1/2-z,1/2+x'
   131   '-y,1/2+z,1/2+x'
   132   'y,1/2+z,1/2-x'
   133   '-y,1/2-x,1/2+z'
   134   'y,1/2+x,1/2+z'
   135   '-y,1/2+x,1/2-z'
   136   'y,1/2-x,1/2-z'
   137   '-x,1/2-z,1/2+y'
   138   'x,1/2-z,1/2-y'
   139   'x,1/2+z,1/2+y'
   140   '-x,1/2+z,1/2-y'
   141   '-z,1/2-y,1/2+x'
   142   '-z,1/2+y,1/2-x'
   143   'z,1/2-y,1/2-x'
   144   'z,1/2+y,1/2+x'
   145   '1/2-x,-y,1/2-z'
   146   '1/2+x,y,1/2-z'
   147   '1/2+x,-y,1/2+z'
   148   '1/2-x,y,1/2+z'
   149   '1/2-z,-x,1/2-y'
   150   '1/2-z,x,1/2+y'
   151   '1/2+z,x,1/2-y'
   152   '1/2+z,-x,1/2+y'
   153   '1/2-y,-z,1/2-x'
   154   '1/2+y,-z,1/2+x'
   155   '1/2-y,z,1/2+x'
   156   '1/2+y,z,1/2-x'
   157   '1/2-y,-x,1/2+z'
   158   '1/2+y,x,1/2+z'
   159   '1/2-y,x,1/2-z'
   160   '1/2+y,-x,1/2-z'
   161   '1/2-x,-z,1/2+y'
   162   '1/2+x,-z,1/2-y'
   163   '1/2+x,z,1/2+y'
   164   '1/2-x,z,1/2-y'
   165   '1/2-z,-y,1/2+x'
   166   '1/2-z,y,1/2-x'
   167   '1/2+z,-y,1/2-x'
   168   '1/2+z,y,1/2+x'
   169   '1/2-x,1/2-y,-z'
   170   '1/2+x,1/2+y,-z'
   171   '1/2+x,1/2-y,z'
   172   '1/2-x,1/2+y,z'
   173   '1/2-z,1/2-x,-y'
   174   '1/2-z,1/2+x,y'
   175   '1/2+z,1/2+x,-y'
   176   '1/2+z,1/2-x,y'
   177   '1/2-y,1/2-z,-x'
   178   '1/2+y,1/2-z,x'
   179   '1/2-y,1/2+z,x'
   180   '1/2+y,1/2+z,-x'
   181   '1/2-y,1/2-x,z'
   182   '1/2+y,1/2+x,z'
   183   '1/2-y,1/2+x,-z'
   184   '1/2+y,1/2-x,-z'
   185   '1/2-x,1/2-z,y'
   186   '1/2+x,1/2-z,-y'
   187   '1/2+x,1/2+z,y'
   188   '1/2-x,1/2+z,-y'
   189   '1/2-z,1/2-y,x'
   190   '1/2-z,1/2+y,-x'
   191   '1/2+z,1/2-y,-x'
   192   '1/2+z,1/2+y,x'
loop_
_atom_site_label
_atom_site_type_symbol
_atom_site_fract_x
_atom_site_fract_y
_atom_site_fract_z
_atom_site_U_iso_or_equiv
_atom_site_thermal_displace_type

   Hf1   Hf   0.000000   0.000000   0.000000   0.0788   Uani
   Cl1   Cl   0.000000   0.000000   0.1880(2)   0.1302   Uani
   Cl1B   Cl   0.000000   0.000000   -0.1880(2)   0.1302   Uani
   Cl1D   Cl   0.1880(2)   0.000000   0.000000   0.1302   Uani
   Cl1F   Cl   -0.1880(2)   0.000000   0.000000   0.1302   Uani
   Cl1H   Cl   0.000000   0.1880(2)   0.000000   0.1302   Uani
   Cl1J   Cl   0.000000   -0.1880(2)   0.000000   0.1302   Uani
   N1   N   0.250000   0.250000   0.250000   0.0850   Uani
   C1   C   0.3124(6)   0.1876(6)   0.1876(6)   0.2340   Uani
   H1   H   0.355105   0.144895   0.229590   0.3510   Uiso
   C1D   C   0.1876(6)   0.3124(6)   0.1876(6)   0.2340   Uani
   H1D   H   0.229590   0.355105   0.144895   0.3510   Uiso
   C1H   C   0.1876(6)   0.1876(6)   0.3124(6)   0.2340   Uani
   H1H   H   0.144895   0.229590   0.355105   0.3510   Uiso
   C1AA   C   0.3124(6)   0.3124(6)   0.3124(6)   0.2340   Uani
   H1AA   H   0.355105   0.355105   0.270410   0.3510   Uiso
   H1CA   H   0.229590   0.144895   0.355105   0.3510   Uiso
   H1HA   H   0.144895   0.270410   0.144895   0.3510   Uiso
   H1XA   H   0.144895   0.144895   0.270410   0.3510   Uiso
   H1CB   H   0.270410   0.355105   0.355105   0.3510   Uiso
   H1EB   H   0.355105   0.229590   0.144895   0.3510   Uiso
   H1UB   H   0.144895   0.355105   0.229590   0.3510   Uiso
   H1ZB   H   0.270410   0.144895   0.144895   0.3510   Uiso
   H1EC   H   0.355105   0.270410   0.355105   0.3510   Uiso
loop_
_atom_site_aniso_label
_atom_site_aniso_U_11
_atom_site_aniso_U_22
_atom_site_aniso_U_33
_atom_site_aniso_U_23
_atom_site_aniso_U_13
_atom_site_aniso_U_12

   Hf1   0.0788(3)   0.0788(3)   0.0788(3)   0.000   0.000   0.000
   Cl1   0.1573(15)   0.1573(15)   0.0759(11)   0.000   0.000   0.000
   Cl1B   0.1573   0.1573   0.0759   0   0   0
   Cl1D   0.0759   0.1573   0.1573   0   0   0
   Cl1F   0.0759   0.1573   0.1573   0   0   0
   Cl1H   0.1573   0.0759   0.1573   0   0   0
   Cl1J   0.1573   0.0759   0.1573   0   0   0
   N1   0.085(2)   0.085(2)   0.085(2)   0.000   0.000   0.000
   C1   0.234(8)   0.234(8)   0.234(8)   -0.068(6)   0.068(6)   0.068(6)
   C1D   0.234   0.234   0.234   0.068   -0.068   0.068
   C1H   0.234   0.234   0.234   0.068   0.068   -0.068
   C1AA   0.234   0.234   0.234   -0.068   -0.068   -0.068
loop_
_geom_bond_atom_site_label_1
_geom_bond_atom_site_label_2
_geom_bond_site_symmetry_1
_geom_bond_site_symmetry_2

   Hf1   Cl1   1_555   1_555
   N1   C1   1_555   1_555
   C1   H1   1_555   1_555
   Cl1B   Hf1   1_555   1_555
   Cl1D   Hf1   1_555   1_555
   Cl1F   Hf1   1_555   1_555
   Cl1H   Hf1   1_555   1_555
   Cl1J   Hf1   1_555   1_555
   C1D   N1   1_555   1_555
   H1D   C1D   1_555   1_555
   C1H   N1   1_555   1_555
   H1H   C1H   1_555   1_555
   C1AA   N1   1_555   1_555
   H1AA   C1AA   1_555   1_555
   H1CA   C1H   1_555   1_555
   H1HA   C1D   1_555   1_555
   H1XA   C1H   1_555   1_555
   H1CB   C1AA   1_555   1_555
   H1EB   C1   1_555   1_555
   H1UB   C1D   1_555   1_555
   H1ZB   C1   1_555   1_555
   H1EC   C1AA   1_555   1_555
