data_HEWMOL

_audit_creation_date   1995-08-02
_database_code_NBS   641491
_database_code_CSD   HEWMOL
_chemical_formula_moiety   '4(C12 H24 O6 Tl1 1+),Cl4 Mn1 2-,2(Cl4 Tl1 1-)'
_chemical_name_systematic
;
tetrakis((18-Crown-6)-thallium) tetrachloro-manganese bis(tetrachloro-thallium)
;
_journal_coden_Cambridge   9
_journal_volume   33
_journal_year   1994
_journal_page_first   4002
_journal_name_full   Inorg.Chem.
_journal_paper_doi   '10.1021/ic00096a026'
_chemical_absolute_configuration   unk
_diffrn_ambient_temperature   295
_exptl_crystal_density_diffrn   2.043
_refine_ls_R_factor_gt   0.036
_refine_ls_wR_factor_gt   0.036
_diffrn_radiation_probe   x-ray
_symmetry_cell_setting   cubic
_symmetry_space_group_name_H-M   'F 2 3'
_symmetry_Int_Tables_number   196
_space_group_name_Hall   'F 2 2 3'
_cell_length_a   20.789(2)
_cell_length_b   20.789(2)
_cell_length_c   20.789(2)
_cell_angle_alpha   90
_cell_angle_beta   90
_cell_angle_gamma   90
_cell_volume   8984.64
_exptl_crystal_colour   colorless
_cell_formula_units_Z   4
loop_
_publ_author_name

   N.S.Fender
   S.S.Finegan
   D.Miller
   M.Mitchell
   I.A.Kahwa
   F.R.Fronczek
loop_
_symmetry_equiv_pos_site_id
_symmetry_equiv_pos_as_xyz

   1   x,y,z
   2   -x,-y,z
   3   x,-y,-z
   4   z,x,y
   5   -x,y,-z
   6   -z,-x,y
   7   z,-x,-y
   8   -z,x,-y
   9   y,z,x
   10   y,-z,-x
   11   -y,z,-x
   12   -y,-z,x
   13   'x,1/2+y,1/2+z'
   14   '-x,1/2-y,1/2+z'
   15   'x,1/2-y,1/2-z'
   16   'z,1/2+x,1/2+y'
   17   '-x,1/2+y,1/2-z'
   18   '-z,1/2-x,1/2+y'
   19   'z,1/2-x,1/2-y'
   20   '-z,1/2+x,1/2-y'
   21   'y,1/2+z,1/2+x'
   22   'y,1/2-z,1/2-x'
   23   '-y,1/2+z,1/2-x'
   24   '-y,1/2-z,1/2+x'
   25   '1/2+x,y,1/2+z'
   26   '1/2-x,-y,1/2+z'
   27   '1/2+x,-y,1/2-z'
   28   '1/2+z,x,1/2+y'
   29   '1/2-x,y,1/2-z'
   30   '1/2-z,-x,1/2+y'
   31   '1/2+z,-x,1/2-y'
   32   '1/2-z,x,1/2-y'
   33   '1/2+y,z,1/2+x'
   34   '1/2+y,-z,1/2-x'
   35   '1/2-y,z,1/2-x'
   36   '1/2-y,-z,1/2+x'
   37   '1/2+x,1/2+y,z'
   38   '1/2-x,1/2-y,z'
   39   '1/2+x,1/2-y,-z'
   40   '1/2+z,1/2+x,y'
   41   '1/2-x,1/2+y,-z'
   42   '1/2-z,1/2-x,y'
   43   '1/2+z,1/2-x,-y'
   44   '1/2-z,1/2+x,-y'
   45   '1/2+y,1/2+z,x'
   46   '1/2+y,1/2-z,-x'
   47   '1/2-y,1/2+z,-x'
   48   '1/2-y,1/2-z,x'
loop_
_atom_site_label
_atom_site_type_symbol
_atom_site_fract_x
_atom_site_fract_y
_atom_site_fract_z

   Tl1   Tl   0.64966(3)   0.3504   0.64966(6)
   O1   O   0.5234(4)   0.3438(5)   0.7121(4)
   O2   O   0.5914(4)   0.4600(5)   0.7244(5)
   C1   C   0.5012(9)   0.4000(7)   0.7483(9)
   C2   C   0.5576(7)   0.4324(7)   0.7732(7)
   C3   C   0.6450(7)   0.4968(8)   0.7493(8)
   C4   C   0.4752(7)   0.310(1)   0.6793(9)
   H1   H   0.4742   0.3866   0.7827
   H2   H   0.4778   0.4280   0.7207
   H3   H   0.5446   0.4648   0.8027
   H4   H   0.5842   0.4021   0.7946
   H5   H   0.6300   0.5304   0.7765
   H6   H   0.6733   0.4697   0.7725
   H7   H   0.4558   0.3372   0.6483
   H8   H   0.4435   0.2959   0.7093
   O1F   O   0.7121(4)   0.4766(4)   0.6562(5)
   O1K   O   0.6562(5)   0.2879(4)   0.5234(4)
   O2F   O   0.7244(5)   0.4086(4)   0.5400(5)
   O2K   O   0.5400(5)   0.2756(5)   0.5914(4)
   C4F   C   0.6793(9)   0.5248(7)   0.690(1)
   C3K   C   0.5032(8)   0.2507(8)   0.6450(7)
   C1F   C   0.7483(9)   0.4988(9)   0.6000(7)
   C1K   C   0.6000(7)   0.2517(9)   0.5012(9)
   C4K   C   0.690(1)   0.3207(9)   0.4752(7)
   C2F   C   0.7732(7)   0.4424(7)   0.5676(7)
   C3F   C   0.7493(8)   0.3550(7)   0.5032(8)
   C2K   C   0.5676(7)   0.2268(7)   0.5576(7)
   H7F   H   0.6483   0.5442   0.6628
   H8F   H   0.7093   0.5565   0.7041
   H5K   H   0.4696   0.2235   0.6300
   H6K   H   0.5303   0.2275   0.6733
   H1F   H   0.7827   0.5258   0.6134
   H2F   H   0.7207   0.5222   0.5720
   H1K   H   0.6134   0.2173   0.4742
   H2K   H   0.5720   0.2793   0.4778
   H7K   H   0.6628   0.3517   0.4558
   H8K   H   0.7041   0.2907   0.4435
   H3F   H   0.8027   0.4554   0.5352
   H4F   H   0.7946   0.4158   0.5979
   H5F   H   0.7765   0.3700   0.4696
   H6F   H   0.7725   0.3267   0.5303
   H3K   H   0.5352   0.1973   0.5446
   H4K   H   0.5979   0.2054   0.5842
   Tl2   Tl   1.0000   1.0000   1.0000
   Cl2   Cl   0.9331(2)   0.9331(2)   0.9331(2)
   Cl2A   Cl   1.0669(2)   1.0669(2)   0.9331(2)
   Cl2B   Cl   0.9331(2)   1.0669(2)   1.0669(2)
   Cl2D   Cl   1.0669(2)   0.9331(2)   1.0669(2)
   Tl3   Tl   0.7500   0.7500   0.7500
   Cl3   Cl   0.8167(2)   0.8167(2)   0.8167(2)
   Cl3N   Cl   0.8167(2)   0.6833(2)   0.6833(2)
   Cl3BA   Cl   0.6833(2)   0.8167(2)   0.6833(2)
   Cl3KA   Cl   0.6833(2)   0.6833(2)   0.8167(2)
   Mn1   Mn   0.2500   0.7500   0.7500
   Cl1   Cl   0.1852(2)   0.8148   0.8148
   Cl1N   Cl   0.1852(2)   0.6852   0.6852
   Cl1BA   Cl   0.3148(2)   0.8148   0.6852
   Cl1KA   Cl   0.3148(2)   0.6852   0.8148
loop_
_geom_bond_atom_site_label_1
_geom_bond_atom_site_label_2
_geom_bond_site_symmetry_1
_geom_bond_site_symmetry_2

   Tl1   O1   1_555   1_555
   Tl2   Cl2   1_555   1_555
   Tl3   Cl3   1_555   1_555
   Mn1   Cl1   1_555   1_555
   O1   C1   1_555   1_555
   O2   Tl1   1_555   1_555
   C1   C2   1_555   1_555
   C2   O2   1_555   1_555
   C3   O2   1_555   1_555
   C4   O1   1_555   1_555
   H1   C1   1_555   1_555
   H2   C1   1_555   1_555
   H3   C2   1_555   1_555
   H4   C2   1_555   1_555
   H5   C3   1_555   1_555
   H6   C3   1_555   1_555
   H7   C4   1_555   1_555
   H8   C4   1_555   1_555
   O1F   Tl1   1_555   1_555
   O1K   Tl1   1_555   1_555
   O2F   Tl1   1_555   1_555
   O2K   Tl1   1_555   1_555
   C4F   C3   1_555   1_555
   C3K   C4   1_555   1_555
   C1F   O1F   1_555   1_555
   C1K   O1K   1_555   1_555
   C4K   O1K   1_555   1_555
   C2F   O2F   1_555   1_555
   C3F   O2F   1_555   1_555
   C2K   O2K   1_555   1_555
   H7F   C4F   1_555   1_555
   H8F   C4F   1_555   1_555
   H5K   C3K   1_555   1_555
   H6K   C3K   1_555   1_555
   H1F   C1F   1_555   1_555
   H2F   C1F   1_555   1_555
   H1K   C1K   1_555   1_555
   H2K   C1K   1_555   1_555
   H7K   C4K   1_555   1_555
   H8K   C4K   1_555   1_555
   H3F   C2F   1_555   1_555
   H4F   C2F   1_555   1_555
   H5F   C3F   1_555   1_555
   H6F   C3F   1_555   1_555
   H3K   C2K   1_555   1_555
   H4K   C2K   1_555   1_555
   Cl2A   Tl2   1_555   1_555
   Cl2B   Tl2   1_555   1_555
   Cl2D   Tl2   1_555   1_555
   Cl3N   Tl3   1_555   1_555
   Cl3BA   Tl3   1_555   1_555
   Cl3KA   Tl3   1_555   1_555
   Cl1N   Mn1   1_555   1_555
   Cl1BA   Mn1   1_555   1_555
   Cl1KA   Mn1   1_555   1_555
   O1F   C4F   1_555   1_555
   O2K   C3K   1_555   1_555
   C1F   C2F   1_555   1_555
   C1K   C2K   1_555   1_555
   C4K   C3F   1_555   1_555
