data_HEWMOL

_audit_creation_date   1995-08-02
_database_code_NBS   641491
_database_code_CSD   HEWMOL
_chemical_formula_moiety   '4(C12 H24 O6 Tl1 1+),Cl4 Mn1 2-,2(Cl4 Tl1 1-)'
_chemical_name_systematic
;
tetrakis((18-Crown-6)-thallium) tetrachloro-manganese bis(tetrachloro-thallium)
;
_journal_coden_Cambridge   9
_journal_volume   33
_journal_year   1994
_journal_page_first   4002
_journal_name_full   Inorg.Chem.
_journal_paper_doi   '10.1021/ic00096a026'
_chemical_absolute_configuration   unk
_diffrn_ambient_temperature   295
_exptl_crystal_density_diffrn   2.043
_refine_ls_R_factor_gt   0.036
_refine_ls_wR_factor_gt   0.036
_diffrn_radiation_probe   x-ray
_symmetry_cell_setting   cubic
_symmetry_space_group_name_H-M   'F 2 3'
_symmetry_Int_Tables_number   196
_space_group_name_Hall   'F 2 2 3'
_cell_length_a   20.789(2)
_cell_length_b   20.789(2)
_cell_length_c   20.789(2)
_cell_angle_alpha   90
_cell_angle_beta   90
_cell_angle_gamma   90
_cell_volume   8984.64
_exptl_crystal_colour   colorless
_cell_formula_units_Z   4
loop_
_publ_author_name

   N.S.Fender
   S.S.Finegan
   D.Miller
   M.Mitchell
   I.A.Kahwa
   F.R.Fronczek
loop_
_symmetry_equiv_pos_site_id
_symmetry_equiv_pos_as_xyz

   1   x,y,z
   2   -x,-y,z
   3   x,-y,-z
   4   z,x,y
   5   -x,y,-z
   6   -z,-x,y
   7   z,-x,-y
   8   -z,x,-y
   9   y,z,x
   10   y,-z,-x
   11   -y,z,-x
   12   -y,-z,x
   13   'x,1/2+y,1/2+z'
   14   '-x,1/2-y,1/2+z'
   15   'x,1/2-y,1/2-z'
   16   'z,1/2+x,1/2+y'
   17   '-x,1/2+y,1/2-z'
   18   '-z,1/2-x,1/2+y'
   19   'z,1/2-x,1/2-y'
   20   '-z,1/2+x,1/2-y'
   21   'y,1/2+z,1/2+x'
   22   'y,1/2-z,1/2-x'
   23   '-y,1/2+z,1/2-x'
   24   '-y,1/2-z,1/2+x'
   25   '1/2+x,y,1/2+z'
   26   '1/2-x,-y,1/2+z'
   27   '1/2+x,-y,1/2-z'
   28   '1/2+z,x,1/2+y'
   29   '1/2-x,y,1/2-z'
   30   '1/2-z,-x,1/2+y'
   31   '1/2+z,-x,1/2-y'
   32   '1/2-z,x,1/2-y'
   33   '1/2+y,z,1/2+x'
   34   '1/2+y,-z,1/2-x'
   35   '1/2-y,z,1/2-x'
   36   '1/2-y,-z,1/2+x'
   37   '1/2+x,1/2+y,z'
   38   '1/2-x,1/2-y,z'
   39   '1/2+x,1/2-y,-z'
   40   '1/2+z,1/2+x,y'
   41   '1/2-x,1/2+y,-z'
   42   '1/2-z,1/2-x,y'
   43   '1/2+z,1/2-x,-y'
   44   '1/2-z,1/2+x,-y'
   45   '1/2+y,1/2+z,x'
   46   '1/2+y,1/2-z,-x'
   47   '1/2-y,1/2+z,-x'
   48   '1/2-y,1/2-z,x'
loop_
_atom_site_label
_atom_site_type_symbol
_atom_site_fract_x
_atom_site_fract_y
_atom_site_fract_z

   Tl1   Tl  1.0 1.0 1.0