data_HXMTAM35

_audit_creation_date   2020-12-08
_database_code_depnum_ccdc_archive   'CCDC 2008819'
_journal_coeditor_code   kc5114
_database_code_CSD   HXMTAM35
_chemical_formula_moiety   'C6 D12 N4'
_chemical_name_systematic   'perdeutero-hexamethylenetetramine'
_journal_coden_Cambridge   228
_journal_volume   53
_journal_year   2020
_journal_page_first   1519
_journal_name_full   'J.Appl.Crystallogr.'
_journal_paper_doi   '10.1107/S1600576720013710'
_chemical_absolute_configuration   unk
_diffrn_ambient_temperature   297
_diffrn_ambient_pressure   '100000.0 kPa'
_exptl_crystal_density_diffrn   1.362
_refine_ls_R_factor_gt   0.0368
_refine_ls_wR_factor_gt   0.0368
_diffrn_radiation_probe   x-ray
_diffrn_source   synchrotron
_symmetry_cell_setting   cubic
_symmetry_space_group_name_H-M   'I -4 3 m'
_symmetry_Int_Tables_number   217
_space_group_name_Hall   'I -4 2 3'
_cell_length_a   6.9914(3)
_cell_length_b   6.9914(3)
_cell_length_c   6.9914(3)
_cell_angle_alpha   90
_cell_angle_beta   90
_cell_angle_gamma   90
_cell_volume   341.737
_exptl_crystal_colour   colorless
_exptl_crystal_description   block
_cell_formula_units_Z   2
loop_
_publ_author_name

   'C.J.McMonagle'
   D.R.Allan
   M.R.Warren
   K.V.Kamenev
   G.F.Turner
   S.A.Moggach
loop_
_symmetry_equiv_pos_site_id
_symmetry_equiv_pos_as_xyz

   1   x,y,z
   2   '1/2+x,1/2+y,1/2+z'
   3   y,z,x
   4   '1/2+y,1/2+z,1/2+x'
   5   z,x,y
   6   '1/2+z,1/2+x,1/2+y'
   7   y,-x,-z
   8   '1/2+y,1/2-x,1/2-z'
   9   z,-y,-x
   10   '1/2+z,1/2-y,1/2-x'
   11   x,-z,-y
   12   '1/2+x,1/2-z,1/2-y'
   13   -x,-y,z
   14   '1/2-x,1/2-y,1/2+z'
   15   -z,x,-y
   16   '1/2-z,1/2+x,1/2-y'
   17   -x,y,-z
   18   '1/2-x,1/2+y,1/2-z'
   19   -y,-z,x
   20   '1/2-y,1/2-z,1/2+x'
   21   -z,-x,y
   22   '1/2-z,1/2-x,1/2+y'
   23   -y,x,-z
   24   '1/2-y,1/2+x,1/2-z'
   25   -z,y,-x
   26   '1/2-z,1/2+y,1/2-x'
   27   -x,z,-y
   28   '1/2-x,1/2+z,1/2-y'
   29   -y,z,-x
   30   '1/2-y,1/2+z,1/2-x'
   31   z,y,x
   32   '1/2+z,1/2+y,1/2+x'
   33   x,z,y
   34   '1/2+x,1/2+z,1/2+y'
   35   y,x,z
   36   '1/2+y,1/2+x,1/2+z'
   37   y,-z,-x
   38   '1/2+y,1/2-z,1/2-x'
   39   -y,-x,z
   40   '1/2-y,1/2-x,1/2+z'
   41   -z,-y,x
   42   '1/2-z,1/2-y,1/2+x'
   43   -x,-z,y
   44   '1/2-x,1/2-z,1/2+y'
   45   x,-y,-z
   46   '1/2+x,1/2-y,1/2-z'
   47   z,-x,-y
   48   '1/2+z,1/2-x,1/2-y'
loop_
_atom_site_label
_atom_site_type_symbol
_atom_site_fract_x
_atom_site_fract_y
_atom_site_fract_z
_atom_site_U_iso_or_equiv
_atom_site_thermal_displace_type

   N1   N   0.5 0.5 0.5