data_LAFBOK

_audit_creation_date   2005-02-01
_database_code_depnum_ccdc_archive   'CCDC 220263'
_database_code_CSD   LAFBOK
_chemical_formula_moiety   'C39 H36 Ir1 N3'
_chemical_name_systematic   'fac-tris(2-(5-Methylpyrid-2-yl)-5-methylphenyl)-iridium(iii)'
_journal_coden_Cambridge   1290
_journal_year   2004
_journal_page_first   3415
_journal_name_full   'Eur.J.Inorg.Chem.'
_journal_paper_doi   '10.1002/ejic.200400114'
_chemical_absolute_configuration   unk
_diffrn_ambient_temperature   173
_exptl_crystal_density_diffrn   1.532
_refine_ls_R_factor_gt   0.0341
_refine_ls_wR_factor_gt   0.0341
_diffrn_radiation_probe   x-ray
_symmetry_cell_setting   cubic
_symmetry_space_group_name_H-M   'I -4 3 d'
_symmetry_Int_Tables_number   220
_space_group_name_Hall   'I -4bd 2c 3'
_cell_length_a   23.4008(10)
_cell_length_b   23.4008(10)
_cell_length_c   23.4008(10)
_cell_angle_alpha   90
_cell_angle_beta   90
_cell_angle_gamma   90
_cell_volume   12814.2
_exptl_crystal_colour   yellow
_exptl_crystal_description   block
_cell_formula_units_Z   16
_exptl_crystal_recrystallization_method   'toluene/benzene/hexane'
_exptl_crystal_preparation   luminescent
loop_
_publ_author_name

   'Sungouk Jung'
   'Youngjin Kang'
   'Hyung-Sun Kim'
   'Yun-Hi Kim'
   'Chang-Lyoul Lee'
   'Jang-Joo Kim'
   'Sung-Koo Lee'
   'Soon-Ki Kwon'
loop_
_symmetry_equiv_pos_site_id
_symmetry_equiv_pos_as_xyz

   1   x,y,z
   2   '1/2-x,-y,1/2+z'
   3   '-x,1/2+y,1/2-z'
   4   '1/2+x,1/2-y,-z'
   5   z,x,y
   6   '1/2+z,1/2-x,-y'
   7   '1/2-z,-x,1/2+y'
   8   '-z,1/2+x,1/2-y'
   9   y,z,x
   10   '-y,1/2+z,1/2-x'
   11   '1/2+y,1/2-z,-x'
   12   '1/2-y,-z,1/2+x'
   13   '1/4+y,1/4+x,1/4+z'
   14   '1/4-y,3/4-x,3/4+z'
   15   '3/4+y,1/4-x,3/4-z'
   16   '3/4-y,3/4+x,1/4-z'
   17   '1/4+x,1/4+z,1/4+y'
   18   '3/4-x,3/4+z,1/4-y'
   19   '1/4-x,3/4-z,3/4+y'
   20   '3/4+x,1/4-z,3/4-y'
   21   '1/4+z,1/4+y,1/4+x'
   22   '3/4+z,1/4-y,3/4-x'
   23   '3/4-z,3/4+y,1/4-x'
   24   '1/4-z,3/4-y,3/4+x'
   25   '1/2+x,1/2+y,1/2+z'
   26   -x,1/2-y,z
   27   1/2-x,y,-z
   28   x,-y,1/2-z
   29   '1/2+z,1/2+x,1/2+y'
   30   z,-x,1/2-y
   31   -z,1/2-x,y
   32   1/2-z,x,-y
   33   '1/2+y,1/2+z,1/2+x'
   34   1/2-y,z,-x
   35   y,-z,1/2-x
   36   -y,1/2-z,x
   37   '3/4+y,3/4+x,3/4+z'
   38   '3/4-y,1/4-x,1/4+z'
   39   '1/4+y,3/4-x,1/4-z'
   40   '1/4-y,1/4+x,3/4-z'
   41   '3/4+x,3/4+z,3/4+y'
   42   '1/4-x,1/4+z,3/4-y'
   43   '3/4-x,1/4-z,1/4+y'
   44   '1/4+x,3/4-z,1/4-y'
   45   '3/4+z,3/4+y,3/4+x'
   46   '1/4+z,3/4-y,1/4-x'
   47   '1/4-z,1/4+y,3/4-x'
   48   '3/4-z,1/4-y,1/4+x'
loop_
_atom_site_label
_atom_site_type_symbol
_atom_site_fract_x
_atom_site_fract_y
_atom_site_fract_z
_atom_site_U_iso_or_equiv
_atom_site_thermal_displace_type

   Ir1   Ir   0.064600(9)   0.064600(9)   0.064600(9)   0.0252   Uani
   N1   N   0.0651(2)   0.1545(2)   0.0571(2)   0.0320   Uani
   C1   C   0.0697(3)   0.1914(3)   0.1013(3)   0.0373   Uani
   H1   H   0.0698   0.1765   0.1391   0.0450   Uiso
   C2   C   0.0743(3)   0.2502(3)   0.0940(3)   0.0410   Uani
   C3   C   0.0741(3)   0.2709(3)   0.0374(4)   0.0547   Uani
   H2   H   0.0775   0.3107   0.0300   0.0650   Uiso
   C4   C   0.0689(3)   0.2330(3)   -0.0067(4)   0.0457   Uani
   H3   H   0.0678   0.2471   -0.0447   0.0550   Uiso
   C5   C   0.0652(3)   0.1743(3)   0.0024(3)   0.0363   Uani
   C6   C   0.0793(4)   0.2887(3)   0.1451(4)   0.0603   Uani
   H4   H   0.0783   0.2656   0.1801   0.0910   Uiso
   H5   H   0.0473   0.3158   0.1454   0.0910   Uiso
   H6   H   0.1154   0.3098   0.1433   0.0910   Uiso
   C7   C   0.0624(3)   0.1302(3)   -0.0414(3)   0.0357   Uani
   C8   C   0.0601(3)   0.1417(4)   -0.1004(3)   0.0483   Uani
   H7   H   0.0595   0.1801   -0.1137   0.0580   Uiso
   C9   C   0.0588(4)   0.0974(4)   -0.1384(3)   0.0477   Uani
   H8   H   0.0568   0.1058   -0.1781   0.0570   Uiso
   C10   C   0.0602(4)   0.0414(3)   -0.1216(3)   0.0457   Uani
   C11   C   0.0615(3)   0.0297(3)   -0.0626(3)   0.0380   Uani
   H9   H   0.0611   -0.0090   -0.0505   0.0460   Uiso
   C12   C   0.0633(3)   0.0735(3)   -0.0205(2)   0.0290   Uani
   C13   C   0.0589(5)   -0.0064(4)   -0.1631(3)   0.0660   Uani
   H10   H   0.0583   0.0089   -0.2021   0.0990   Uiso
   H11   H   0.0246   -0.0296   -0.1567   0.0990   Uiso
   H12   H   0.0930   -0.0302   -0.1580   0.0990   Uiso
   N1D   N   0.0571(2)   0.0651(2)   0.1545(2)   0.0320   Uani
   C1D   C   0.1013(3)   0.0697(3)   0.1914(3)   0.0373   Uani
   H1D   H   0.1391   0.0698   0.1765   0.0450   Uiso
   C2D   C   0.0940(3)   0.0743(3)   0.2502(3)   0.0410   Uani
   C3D   C   0.0374(4)   0.0741(3)   0.2709(3)   0.0547   Uani
   H2D   H   0.0300   0.0775   0.3107   0.0650   Uiso
   C4D   C   -0.0067(4)   0.0689(3)   0.2330(3)   0.0457   Uani
   H3D   H   -0.0447   0.0678   0.2471   0.0550   Uiso
   C5D   C   0.0024(3)   0.0652(3)   0.1743(3)   0.0363   Uani
   C7D   C   -0.0414(3)   0.0624(3)   0.1302(3)   0.0357   Uani
   C8D   C   -0.1004(3)   0.0601(3)   0.1417(4)   0.0483   Uani
   H7D   H   -0.1137   0.0595   0.1801   0.0580   Uiso
   C9D   C   -0.1384(3)   0.0588(4)   0.0974(4)   0.0477   Uani
   H8D   H   -0.1781   0.0568   0.1058   0.0570   Uiso
   C10D   C   -0.1216(3)   0.0602(4)   0.0414(3)   0.0457   Uani
   C11D   C   -0.0626(3)   0.0615(3)   0.0297(3)   0.0380   Uani
   H9D   H   -0.0505   0.0611   -0.0090   0.0460   Uiso
   C12D   C   -0.0205(2)   0.0633(3)   0.0735(3)   0.0290   Uani
   N1H   N   0.1545(2)   0.0571(2)   0.0651(2)   0.0320   Uani
   C1H   C   0.1914(3)   0.1013(3)   0.0697(3)   0.0373   Uani
   H1H   H   0.1765   0.1391   0.0698   0.0450   Uiso
   C2H   C   0.2502(3)   0.0940(3)   0.0743(3)   0.0410   Uani
   C3H   C   0.2709(3)   0.0374(4)   0.0741(3)   0.0547   Uani
   H2H   H   0.3107   0.0300   0.0775   0.0650   Uiso
   C4H   C   0.2330(3)   -0.0067(4)   0.0689(3)   0.0457   Uani
   H3H   H   0.2471   -0.0447   0.0678   0.0550   Uiso
   C5H   C   0.1743(3)   0.0024(3)   0.0652(3)   0.0363   Uani
   C7H   C   0.1302(3)   -0.0414(3)   0.0624(3)   0.0357   Uani
   C8H   C   0.1417(4)   -0.1004(3)   0.0601(3)   0.0483   Uani
   H7H   H   0.1801   -0.1137   0.0595   0.0580   Uiso
   C9H   C   0.0974(4)   -0.1384(3)   0.0588(4)   0.0477   Uani
   H8H   H   0.1058   -0.1781   0.0568   0.0570   Uiso
   C10H   C   0.0414(3)   -0.1216(3)   0.0602(4)   0.0457   Uani
   C11H   C   0.0297(3)   -0.0626(3)   0.0615(3)   0.0380   Uani
   H9H   H   -0.0090   -0.0505   0.0611   0.0460   Uiso
   C12H   C   0.0735(3)   -0.0205(2)   0.0633(3)   0.0290   Uani
   C13H   C   -0.0064(4)   -0.1631(3)   0.0589(5)   0.0660   Uani
   H10H   H   0.0089   -0.2021   0.0583   0.0990   Uiso
   H11H   H   -0.0296   -0.1567   0.0246   0.0990   Uiso
   H12H   H   -0.0302   -0.1580   0.0930   0.0990   Uiso
   C6H   C   0.2887(3)   0.1451(4)   0.0793(4)   0.0603   Uani
   H4H   H   0.2656   0.1801   0.0783   0.0910   Uiso
   H5H   H   0.3158   0.1454   0.0473   0.0910   Uiso
   H6H   H   0.3098   0.1433   0.1154   0.0910   Uiso
   C13D   C   -0.1631(3)   0.0589(5)   -0.0064(4)   0.0660   Uani
   H10D   H   -0.2021   0.0583   0.0089   0.0990   Uiso
   H11D   H   -0.1567   0.0246   -0.0296   0.0990   Uiso
   H12D   H   -0.1580   0.0930   -0.0302   0.0990   Uiso
   C6D   C   0.1451(4)   0.0793(4)   0.2887(3)   0.0603   Uani
   H4D   H   0.1801   0.0783   0.2656   0.0910   Uiso
   H5D   H   0.1454   0.0473   0.3158   0.0910   Uiso
   H6D   H   0.1433   0.1154   0.3098   0.0910   Uiso
loop_
_atom_site_aniso_label
_atom_site_aniso_U_11
_atom_site_aniso_U_22
_atom_site_aniso_U_33
_atom_site_aniso_U_23
_atom_site_aniso_U_13
_atom_site_aniso_U_12

   Ir1   0.02516(10)   0.02516(10)   0.02516(10)   0.00797(9)   0.00797(9)   0.00797(9)
   N1   0.023(2)   0.039(2)   0.034(3)   0.010(2)   0.004(3)   0.007(2)
   C1   0.033(3)   0.033(3)   0.046(4)   0.008(3)   0.012(3)   0.004(3)
   C2   0.029(3)   0.029(3)   0.065(5)   0.005(3)   0.006(3)   0.002(3)
   C3   0.041(4)   0.036(4)   0.087(6)   0.030(4)   -0.001(4)   -0.003(3)
   C4   0.036(3)   0.039(4)   0.062(5)   0.026(3)   0.007(3)   0.002(3)
   C5   0.021(3)   0.040(4)   0.048(4)   0.018(3)   0.009(3)   0.002(3)
   C6   0.063(6)   0.028(4)   0.090(7)   -0.005(4)   -0.004(5)   0.000(4)
   C7   0.022(3)   0.055(4)   0.030(3)   0.015(3)   0.003(3)   0.007(3)
   C8   0.035(4)   0.065(5)   0.045(4)   0.032(4)   0.006(3)   0.013(4)
   C9   0.046(4)   0.072(5)   0.025(3)   0.011(3)   0.002(3)   0.023(4)
   C10   0.037(4)   0.074(5)   0.026(3)   0.005(3)   0.001(3)   0.021(4)
   C11   0.027(3)   0.054(4)   0.033(3)   0.011(3)   0.007(3)   0.008(3)
   C12   0.021(3)   0.037(3)   0.029(2)   0.008(2)   0.006(3)   0.010(3)
   C13   0.080(7)   0.093(7)   0.025(3)   0.003(4)   -0.002(4)   0.029(6)
   N1D   0.034   0.023   0.039   0.007   0.01   0.004
   C1D   0.046   0.033   0.033   0.004   0.008   0.012
   C2D   0.065   0.029   0.029   0.002   0.005   0.006
   C3D   0.087   0.041   0.036   -0.003   0.03   -0.001
   C4D   0.062   0.036   0.039   0.002   0.026   0.007
   C5D   0.048   0.021   0.04   0.002   0.018   0.009
   C7D   0.03   0.022   0.055   0.007   0.015   0.003
   C8D   0.045   0.035   0.065   0.013   0.032   0.006
   C9D   0.025   0.046   0.072   0.023   0.011   0.002
   C10D   0.026   0.037   0.074   0.021   0.005   0.001
   C11D   0.033   0.027   0.054   0.008   0.011   0.007
   C12D   0.029   0.021   0.037   0.01   0.008   0.006
   N1H   0.039   0.034   0.023   0.004   0.007   0.01
   C1H   0.033   0.046   0.033   0.012   0.004   0.008
   C2H   0.029   0.065   0.029   0.006   0.002   0.005
   C3H   0.036   0.087   0.041   -0.001   -0.003   0.03
   C4H   0.039   0.062   0.036   0.007   0.002   0.026
   C5H   0.04   0.048   0.021   0.009   0.002   0.018
   C7H   0.055   0.03   0.022   0.003   0.007   0.015
   C8H   0.065   0.045   0.035   0.006   0.013   0.032
   C9H   0.072   0.025   0.046   0.002   0.023   0.011
   C10H   0.074   0.026   0.037   0.001   0.021   0.005
   C11H   0.054   0.033   0.027   0.007   0.008   0.011
   C12H   0.037   0.029   0.021   0.006   0.01   0.008
   C13H   0.093   0.025   0.08   -0.002   0.029   0.003
   C6H   0.028   0.09   0.063   -0.004   0   -0.005
   C13D   0.025   0.08   0.093   0.029   0.003   -0.002
   C6D   0.09   0.063   0.028   0   -0.005   -0.004
loop_
_geom_bond_atom_site_label_1
_geom_bond_atom_site_label_2
_geom_bond_site_symmetry_1
_geom_bond_site_symmetry_2

   Ir1   N1   1_555   1_555
   N1   C1   1_555   1_555
   C1   H1   1_555   1_555
   C2   C1   1_555   1_555
   C3   C2   1_555   1_555
   H2   C3   1_555   1_555
   C4   C3   1_555   1_555
   H3   C4   1_555   1_555
   C5   N1   1_555   1_555
   C6   C2   1_555   1_555
   H4   C6   1_555   1_555
   H5   C6   1_555   1_555
   H6   C6   1_555   1_555
   C7   C5   1_555   1_555
   C8   C7   1_555   1_555
   H7   C8   1_555   1_555
   C9   C8   1_555   1_555
   H8   C9   1_555   1_555
   C10   C9   1_555   1_555
   C11   C10   1_555   1_555
   H9   C11   1_555   1_555
   C12   Ir1   1_555   1_555
   C13   C10   1_555   1_555
   H10   C13   1_555   1_555
   H11   C13   1_555   1_555
   H12   C13   1_555   1_555
   N1D   Ir1   1_555   1_555
   C1D   N1D   1_555   1_555
   H1D   C1D   1_555   1_555
   C2D   C1D   1_555   1_555
   C3D   C2D   1_555   1_555
   H2D   C3D   1_555   1_555
   C4D   C3D   1_555   1_555
   H3D   C4D   1_555   1_555
   C5D   N1D   1_555   1_555
   C7D   C5D   1_555   1_555
   C8D   C7D   1_555   1_555
   H7D   C8D   1_555   1_555
   C9D   C8D   1_555   1_555
   H8D   C9D   1_555   1_555
   C10D   C9D   1_555   1_555
   C11D   C10D   1_555   1_555
   H9D   C11D   1_555   1_555
   C12D   Ir1   1_555   1_555
   N1H   Ir1   1_555   1_555
   C1H   N1H   1_555   1_555
   H1H   C1H   1_555   1_555
   C2H   C1H   1_555   1_555
   C3H   C2H   1_555   1_555
   H2H   C3H   1_555   1_555
   C4H   C3H   1_555   1_555
   H3H   C4H   1_555   1_555
   C5H   N1H   1_555   1_555
   C7H   C5H   1_555   1_555
   C8H   C7H   1_555   1_555
   H7H   C8H   1_555   1_555
   C9H   C8H   1_555   1_555
   H8H   C9H   1_555   1_555
   C10H   C9H   1_555   1_555
   C11H   C10H   1_555   1_555
   H9H   C11H   1_555   1_555
   C12H   Ir1   1_555   1_555
   C13H   C10H   1_555   1_555
   H10H   C13H   1_555   1_555
   H11H   C13H   1_555   1_555
   H12H   C13H   1_555   1_555
   C6H   C2H   1_555   1_555
   H4H   C6H   1_555   1_555
   H5H   C6H   1_555   1_555
   H6H   C6H   1_555   1_555
   C13D   C10D   1_555   1_555
   H10D   C13D   1_555   1_555
   H11D   C13D   1_555   1_555
   H12D   C13D   1_555   1_555
   C6D   C2D   1_555   1_555
   H4D   C6D   1_555   1_555
   H5D   C6D   1_555   1_555
   H6D   C6D   1_555   1_555
   C4   C5   1_555   1_555
   C7   C12   1_555   1_555
   C11   C12   1_555   1_555
   C4D   C5D   1_555   1_555
   C7D   C12D   1_555   1_555
   C11D   C12D   1_555   1_555
   C4H   C5H   1_555   1_555
   C7H   C12H   1_555   1_555
   C11H   C12H   1_555   1_555
