data_TAVGOM

_audit_creation_date   1997-01-23
_database_code_NBS   662273
_database_code_CSD   TAVGOM
_chemical_formula_moiety   'C36 H84 Cs4 F4 Ga4'
_chemical_name_systematic   'tetrakis(\m~3~-Fluoro)-dodecakis(tri-isopropyl)-tetra-cesium-tetra-gallium'
_journal_coden_Cambridge   9
_journal_volume   35
_journal_year   1996
_journal_page_first   2977
_journal_name_full   Inorg.Chem.
_journal_paper_doi   '10.1021/ic951467r'
_chemical_absolute_configuration   unk
_diffrn_ambient_temperature   223
_exptl_crystal_density_diffrn   1.712
_refine_ls_R_factor_gt   0.0168
_refine_ls_wR_factor_gt   0.0168
_diffrn_radiation_probe   x-ray
_symmetry_cell_setting   cubic
_symmetry_space_group_name_H-M   'I 2 3'
_symmetry_Int_Tables_number   197
_space_group_name_Hall   'I 2 2 3'
_cell_length_a   13.963(1)
_cell_length_b   13.963(1)
_cell_length_c   13.963(1)
_cell_angle_alpha   90
_cell_angle_beta   90
_cell_angle_gamma   90
_cell_volume   2722.3
_exptl_crystal_colour   colorless
_chemical_melting_point   '128 deg.C'
_cell_formula_units_Z   2
_chemical_properties_physical   'oxygen- and moisture- sensitive'
loop_
_publ_author_name

   B.Werner
   T.Krauter
   B.Neumuller
loop_
_symmetry_equiv_pos_site_id
_symmetry_equiv_pos_as_xyz

   1   x,y,z
   2   -x,-y,z
   3   x,-y,-z
   4   z,x,y
   5   -x,y,-z
   6   -z,-x,y
   7   z,-x,-y
   8   -z,x,-y
   9   y,z,x
   10   y,-z,-x
   11   -y,z,-x
   12   -y,-z,x
   13   '1/2+x,1/2+y,1/2+z'
   14   '1/2-x,1/2-y,1/2+z'
   15   '1/2+x,1/2-y,1/2-z'
   16   '1/2+z,1/2+x,1/2+y'
   17   '1/2-x,1/2+y,1/2-z'
   18   '1/2-z,1/2-x,1/2+y'
   19   '1/2+z,1/2-x,1/2-y'
   20   '1/2-z,1/2+x,1/2-y'
   21   '1/2+y,1/2+z,1/2+x'
   22   '1/2+y,1/2-z,1/2-x'
   23   '1/2-y,1/2+z,1/2-x'
   24   '1/2-y,1/2-z,1/2+x'
loop_
_atom_site_label
_atom_site_type_symbol
_atom_site_fract_x
_atom_site_fract_y
_atom_site_fract_z

   Cs1   Cs   -0.11295(2)   0.11295(2)   0.11295(2)
   Ga1   Ga   0.17634(3)   0.17634(3)   0.17634(3)
   F1   F   0.0949(2)   0.0949(2)   0.0949(2)
   C1   C   0.2030(3)   0.0886(3)   0.2862(3)
   C2   C   0.2856(4)   0.1213(5)   0.3483(4)
   C3   C   0.1147(5)   0.0723(5)   0.3474(5)
   H1   H   0.2218(3)   0.0258(3)   0.2589(3)
   H2   H   0.3420(4)   0.1313(5)   0.3090(4)
   H3   H   0.2994(4)   0.0733(5)   0.3966(4)
   H4   H   0.2681(4)   0.1810(5)   0.3792(4)
   H5   H   0.0625(5)   0.0507(5)   0.3070(5)
   H6   H   0.0968(5)   0.1317(5)   0.3787(5)
   H7   H   0.1283(5)   0.0240(5)   0.3956(5)
   Cs1A   Cs   0.11295(2)   -0.11295(2)   0.11295(2)
   F1A   F   -0.0949(2)   -0.0949(2)   0.0949(2)
   F1D   F   -0.0949(2)   0.0949(2)   -0.0949(2)
   Cs1D   Cs   0.11295(2)   0.11295(2)   -0.11295(2)
   F1B   F   0.0949(2)   -0.0949(2)   -0.0949(2)
   Cs1B   Cs   -0.11295(2)   -0.11295(2)   -0.11295(2)
   Ga1D   Ga   -0.17634(3)   0.17634(3)   -0.17634(3)
   C1D   C   -0.2030(3)   0.0886(3)   -0.2862(3)
   C2D   C   -0.2856(4)   0.1213(5)   -0.3483(4)
   H2D   H   -0.3420(4)   0.1313(5)   -0.3090(4)
   H3D   H   -0.2994(4)   0.0733(5)   -0.3966(4)
   H4D   H   -0.2681(4)   0.1810(5)   -0.3792(4)
   C3D   C   -0.1147(5)   0.0723(5)   -0.3474(5)
   H5D   H   -0.0625(5)   0.0507(5)   -0.3070(5)
   H6D   H   -0.0968(5)   0.1317(5)   -0.3787(5)
   H7D   H   -0.1283(5)   0.0240(5)   -0.3956(5)
   H1D   H   -0.2218(3)   0.0258(3)   -0.2589(3)
   C1G   C   -0.2862(3)   0.2030(3)   -0.0886(3)
   C2G   C   -0.3483(4)   0.2856(4)   -0.1213(5)
   H2G   H   -0.3090(4)   0.3420(4)   -0.1313(5)
   H3G   H   -0.3966(4)   0.2994(4)   -0.0733(5)
   H4G   H   -0.3792(4)   0.2681(4)   -0.1810(5)
   C3G   C   -0.3474(5)   0.1147(5)   -0.0723(5)
   H5G   H   -0.3070(5)   0.0625(5)   -0.0507(5)
   H6G   H   -0.3787(5)   0.0968(5)   -0.1317(5)
   H7G   H   -0.3956(5)   0.1283(5)   -0.0240(5)
   H1G   H   -0.2589(3)   0.2218(3)   -0.0258(3)
   C1J   C   -0.0886(3)   0.2862(3)   -0.2030(3)
   C2J   C   -0.1213(5)   0.3483(4)   -0.2856(4)
   H2J   H   -0.1313(5)   0.3090(4)   -0.3420(4)
   H3J   H   -0.0733(5)   0.3966(4)   -0.2994(4)
   H4J   H   -0.1810(5)   0.3792(4)   -0.2681(4)
   C3J   C   -0.0723(5)   0.3474(5)   -0.1147(5)
   H5J   H   -0.0507(5)   0.3070(5)   -0.0625(5)
   H6J   H   -0.1317(5)   0.3787(5)   -0.0968(5)
   H7J   H   -0.0240(5)   0.3956(5)   -0.1283(5)
   H1J   H   -0.0258(3)   0.2589(3)   -0.2218(3)
   Ga1A   Ga   -0.17634(3)   -0.17634(3)   0.17634(3)
   C1A   C   -0.2030(3)   -0.0886(3)   0.2862(3)
   C2A   C   -0.2856(4)   -0.1213(5)   0.3483(4)
   H2A   H   -0.3420(4)   -0.1313(5)   0.3090(4)
   H3A   H   -0.2994(4)   -0.0733(5)   0.3966(4)
   H4A   H   -0.2681(4)   -0.1810(5)   0.3792(4)
   C3A   C   -0.1147(5)   -0.0723(5)   0.3474(5)
   H5A   H   -0.0625(5)   -0.0507(5)   0.3070(5)
   H6A   H   -0.0968(5)   -0.1317(5)   0.3787(5)
   H7A   H   -0.1283(5)   -0.0240(5)   0.3956(5)
   H1A   H   -0.2218(3)   -0.0258(3)   0.2589(3)
   C1E   C   -0.2862(3)   -0.2030(3)   0.0886(3)
   C2E   C   -0.3483(4)   -0.2856(4)   0.1213(5)
   H2E   H   -0.3090(4)   -0.3420(4)   0.1313(5)
   H3E   H   -0.3966(4)   -0.2994(4)   0.0733(5)
   H4E   H   -0.3792(4)   -0.2681(4)   0.1810(5)
   C3E   C   -0.3474(5)   -0.1147(5)   0.0723(5)
   H5E   H   -0.3070(5)   -0.0625(5)   0.0507(5)
   H6E   H   -0.3787(5)   -0.0968(5)   0.1317(5)
   H7E   H   -0.3956(5)   -0.1283(5)   0.0240(5)
   H1E   H   -0.2589(3)   -0.2218(3)   0.0258(3)
   C1K   C   -0.0886(3)   -0.2862(3)   0.2030(3)
   C2K   C   -0.1213(5)   -0.3483(4)   0.2856(4)
   H2K   H   -0.1313(5)   -0.3090(4)   0.3420(4)
   H3K   H   -0.0733(5)   -0.3966(4)   0.2994(4)
   H4K   H   -0.1810(5)   -0.3792(4)   0.2681(4)
   C3K   C   -0.0723(5)   -0.3474(5)   0.1147(5)
   H5K   H   -0.0507(5)   -0.3070(5)   0.0625(5)
   H6K   H   -0.1317(5)   -0.3787(5)   0.0968(5)
   H7K   H   -0.0240(5)   -0.3956(5)   0.1283(5)
   H1K   H   -0.0258(3)   -0.2589(3)   0.2218(3)
   Ga1B   Ga   0.17634(3)   -0.17634(3)   -0.17634(3)
   C1B   C   0.2030(3)   -0.0886(3)   -0.2862(3)
   C2B   C   0.2856(4)   -0.1213(5)   -0.3483(4)
   H2B   H   0.3420(4)   -0.1313(5)   -0.3090(4)
   H3B   H   0.2994(4)   -0.0733(5)   -0.3966(4)
   H4B   H   0.2681(4)   -0.1810(5)   -0.3792(4)
   C3B   C   0.1147(5)   -0.0723(5)   -0.3474(5)
   H5B   H   0.0625(5)   -0.0507(5)   -0.3070(5)
   H6B   H   0.0968(5)   -0.1317(5)   -0.3787(5)
   H7B   H   0.1283(5)   -0.0240(5)   -0.3956(5)
   H1B   H   0.2218(3)   -0.0258(3)   -0.2589(3)
   C1F   C   0.2862(3)   -0.2030(3)   -0.0886(3)
   C2F   C   0.3483(4)   -0.2856(4)   -0.1213(5)
   H2F   H   0.3090(4)   -0.3420(4)   -0.1313(5)
   H3F   H   0.3966(4)   -0.2994(4)   -0.0733(5)
   H4F   H   0.3792(4)   -0.2681(4)   -0.1810(5)
   C3F   C   0.3474(5)   -0.1147(5)   -0.0723(5)
   H5F   H   0.3070(5)   -0.0625(5)   -0.0507(5)
   H6F   H   0.3787(5)   -0.0968(5)   -0.1317(5)
   H7F   H   0.3956(5)   -0.1283(5)   -0.0240(5)
   H1F   H   0.2589(3)   -0.2218(3)   -0.0258(3)
   C1I   C   0.0886(3)   -0.2862(3)   -0.2030(3)
   C2I   C   0.1213(5)   -0.3483(4)   -0.2856(4)
   H2I   H   0.1313(5)   -0.3090(4)   -0.3420(4)
   H3I   H   0.0733(5)   -0.3966(4)   -0.2994(4)
   H4I   H   0.1810(5)   -0.3792(4)   -0.2681(4)
   C3I   C   0.0723(5)   -0.3474(5)   -0.1147(5)
   H5I   H   0.0507(5)   -0.3070(5)   -0.0625(5)
   H6I   H   0.1317(5)   -0.3787(5)   -0.0968(5)
   H7I   H   0.0240(5)   -0.3956(5)   -0.1283(5)
   H1I   H   0.0258(3)   -0.2589(3)   -0.2218(3)
   C1C   C   0.2862(3)   0.2030(3)   0.0886(3)
   C2C   C   0.3483(4)   0.2856(4)   0.1213(5)
   H2C   H   0.3090(4)   0.3420(4)   0.1313(5)
   H3C   H   0.3966(4)   0.2994(4)   0.0733(5)
   H4C   H   0.3792(4)   0.2681(4)   0.1810(5)
   C3C   C   0.3474(5)   0.1147(5)   0.0723(5)
   H5C   H   0.3070(5)   0.0625(5)   0.0507(5)
   H6C   H   0.3787(5)   0.0968(5)   0.1317(5)
   H7C   H   0.3956(5)   0.1283(5)   0.0240(5)
   H1C   H   0.2589(3)   0.2218(3)   0.0258(3)
   C1H   C   0.0886(3)   0.2862(3)   0.2030(3)
   C2H   C   0.1213(5)   0.3483(4)   0.2856(4)
   H2H   H   0.1313(5)   0.3090(4)   0.3420(4)
   H3H   H   0.0733(5)   0.3966(4)   0.2994(4)
   H4H   H   0.1810(5)   0.3792(4)   0.2681(4)
   C3H   C   0.0723(5)   0.3474(5)   0.1147(5)
   H5H   H   0.0507(5)   0.3070(5)   0.0625(5)
   H6H   H   0.1317(5)   0.3787(5)   0.0968(5)
   H7H   H   0.0240(5)   0.3956(5)   0.1283(5)
   H1H   H   0.0258(3)   0.2589(3)   0.2218(3)
loop_
_geom_bond_atom_site_label_1
_geom_bond_atom_site_label_2
_geom_bond_site_symmetry_1
_geom_bond_site_symmetry_2

   Cs1   F1   1_555   1_555
   Ga1   F1   1_555   1_555
   F1   Cs1A   1_555   1_555
   C1   Ga1   1_555   1_555
   C2   C1   1_555   1_555
   C3   C1   1_555   1_555
   H1   C1   1_555   1_555
   H2   C2   1_555   1_555
   H3   C2   1_555   1_555
   H4   C2   1_555   1_555
   H5   C3   1_555   1_555
   H6   C3   1_555   1_555
   H7   C3   1_555   1_555
   Cs1A   F1A   1_555   1_555
   F1A   Cs1   1_555   1_555
   F1D   Cs1   1_555   1_555
   Cs1D   F1   1_555   1_555
   F1B   Cs1A   1_555   1_555
   Cs1B   F1A   1_555   1_555
   Ga1D   F1D   1_555   1_555
   C1D   Ga1D   1_555   1_555
   C2D   C1D   1_555   1_555
   H2D   C2D   1_555   1_555
   H3D   C2D   1_555   1_555
   H4D   C2D   1_555   1_555
   C3D   C1D   1_555   1_555
   H5D   C3D   1_555   1_555
   H6D   C3D   1_555   1_555
   H7D   C3D   1_555   1_555
   H1D   C1D   1_555   1_555
   C1G   Ga1D   1_555   1_555
   C2G   C1G   1_555   1_555
   H2G   C2G   1_555   1_555
   H3G   C2G   1_555   1_555
   H4G   C2G   1_555   1_555
   C3G   C1G   1_555   1_555
   H5G   C3G   1_555   1_555
   H6G   C3G   1_555   1_555
   H7G   C3G   1_555   1_555
   H1G   C1G   1_555   1_555
   C1J   Ga1D   1_555   1_555
   C2J   C1J   1_555   1_555
   H2J   C2J   1_555   1_555
   H3J   C2J   1_555   1_555
   H4J   C2J   1_555   1_555
   C3J   C1J   1_555   1_555
   H5J   C3J   1_555   1_555
   H6J   C3J   1_555   1_555
   H7J   C3J   1_555   1_555
   H1J   C1J   1_555   1_555
   Ga1A   F1A   1_555   1_555
   C1A   Ga1A   1_555   1_555
   C2A   C1A   1_555   1_555
   H2A   C2A   1_555   1_555
   H3A   C2A   1_555   1_555
   H4A   C2A   1_555   1_555
   C3A   C1A   1_555   1_555
   H5A   C3A   1_555   1_555
   H6A   C3A   1_555   1_555
   H7A   C3A   1_555   1_555
   H1A   C1A   1_555   1_555
   C1E   Ga1A   1_555   1_555
   C2E   C1E   1_555   1_555
   H2E   C2E   1_555   1_555
   H3E   C2E   1_555   1_555
   H4E   C2E   1_555   1_555
   C3E   C1E   1_555   1_555
   H5E   C3E   1_555   1_555
   H6E   C3E   1_555   1_555
   H7E   C3E   1_555   1_555
   H1E   C1E   1_555   1_555
   C1K   Ga1A   1_555   1_555
   C2K   C1K   1_555   1_555
   H2K   C2K   1_555   1_555
   H3K   C2K   1_555   1_555
   H4K   C2K   1_555   1_555
   C3K   C1K   1_555   1_555
   H5K   C3K   1_555   1_555
   H6K   C3K   1_555   1_555
   H7K   C3K   1_555   1_555
   H1K   C1K   1_555   1_555
   Ga1B   F1B   1_555   1_555
   C1B   Ga1B   1_555   1_555
   C2B   C1B   1_555   1_555
   H2B   C2B   1_555   1_555
   H3B   C2B   1_555   1_555
   H4B   C2B   1_555   1_555
   C3B   C1B   1_555   1_555
   H5B   C3B   1_555   1_555
   H6B   C3B   1_555   1_555
   H7B   C3B   1_555   1_555
   H1B   C1B   1_555   1_555
   C1F   Ga1B   1_555   1_555
   C2F   C1F   1_555   1_555
   H2F   C2F   1_555   1_555
   H3F   C2F   1_555   1_555
   H4F   C2F   1_555   1_555
   C3F   C1F   1_555   1_555
   H5F   C3F   1_555   1_555
   H6F   C3F   1_555   1_555
   H7F   C3F   1_555   1_555
   H1F   C1F   1_555   1_555
   C1I   Ga1B   1_555   1_555
   C2I   C1I   1_555   1_555
   H2I   C2I   1_555   1_555
   H3I   C2I   1_555   1_555
   H4I   C2I   1_555   1_555
   C3I   C1I   1_555   1_555
   H5I   C3I   1_555   1_555
   H6I   C3I   1_555   1_555
   H7I   C3I   1_555   1_555
   H1I   C1I   1_555   1_555
   C1C   Ga1   1_555   1_555
   C2C   C1C   1_555   1_555
   H2C   C2C   1_555   1_555
   H3C   C2C   1_555   1_555
   H4C   C2C   1_555   1_555
   C3C   C1C   1_555   1_555
   H5C   C3C   1_555   1_555
   H6C   C3C   1_555   1_555
   H7C   C3C   1_555   1_555
   H1C   C1C   1_555   1_555
   C1H   Ga1   1_555   1_555
   C2H   C1H   1_555   1_555
   H2H   C2H   1_555   1_555
   H3H   C2H   1_555   1_555
   H4H   C2H   1_555   1_555
   C3H   C1H   1_555   1_555
   H5H   C3H   1_555   1_555
   H6H   C3H   1_555   1_555
   H7H   C3H   1_555   1_555
   H1H   C1H   1_555   1_555
   F1D   Cs1D   1_555   1_555
   F1D   Cs1B   1_555   1_555
   Cs1D   F1B   1_555   1_555
   F1B   Cs1B   1_555   1_555
