data_WAVCIF

_audit_creation_date   1994-03-29
_database_code_NBS   633948
_database_code_CSD   WAVCIF
_chemical_formula_moiety   'C48 H112 O4 Si4 Ta2'
_chemical_name_systematic   'tetrakis(Hydrido-tri-t-butylsilyloxy)-di-tantalum'
_journal_coden_Cambridge   4
_journal_volume   115
_journal_year   1993
_journal_page_first   5570
_journal_name_full   'J.Am.Chem.Soc.'
_journal_paper_doi   '10.1021/ja00066a026'
_chemical_absolute_configuration   unk
_diffrn_ambient_temperature   295
_exptl_crystal_density_diffrn   1.1
_refine_ls_R_factor_gt   0.05
_refine_ls_wR_factor_gt   0.05
_diffrn_radiation_probe   x-ray
_symmetry_cell_setting   cubic
_symmetry_space_group_name_H-M   'I -4 3 d'
_symmetry_Int_Tables_number   220
_space_group_name_Hall   'I -4bd 2c 3'
_cell_length_a   28.125(6)
_cell_length_b   28.125(6)
_cell_length_c   28.125(6)
_cell_angle_alpha   90
_cell_angle_beta   90
_cell_angle_gamma   90
_cell_volume   22247.3
_exptl_crystal_colour   orange
_chemical_melting_point   180deg.C
_cell_formula_units_Z   12
loop_
_publ_author_name

   R.L.Miller
   R.Toreki
   R.E.LaPointe
   'P.T.Wolczanski'
   'G.D.van Duyne'
   D.C.Roe
loop_
_symmetry_equiv_pos_site_id
_symmetry_equiv_pos_as_xyz

   1   x,y,z
   2   '1/2+x,1/2+y,1/2+z'
   3   z,x,y
   4   y,z,x
   5   '1/2+z,1/2+x,1/2+y'
   6   '1/2+y,1/2+z,1/2+x'
   7   '1/2+x,1/2-y,-z'
   8   x,-y,1/2-z
   9   '1/2+z,1/2-x,-y'
   10   '1/2+y,1/2-z,-x'
   11   z,-x,1/2-y
   12   y,-z,1/2-x
   13   '-x,1/2+y,1/2-z'
   14   1/2-x,y,-z
   15   '-z,1/2+x,1/2-y'
   16   '-y,1/2+z,1/2-x'
   17   1/2-z,x,-y
   18   1/2-y,z,-x
   19   '1/2-x,-y,1/2+z'
   20   -x,1/2-y,z
   21   '1/2-z,-x,1/2+y'
   22   '1/2-y,-z,1/2+x'
   23   -z,1/2-x,y
   24   -y,1/2-z,x
   25   '1/4+y,1/4+x,1/4+z'
   26   '3/4+y,3/4+x,3/4+z'
   27   '1/4+x,1/4+z,1/4+y'
   28   '1/4+z,1/4+y,1/4+x'
   29   '3/4+x,3/4+z,3/4+y'
   30   '3/4+z,3/4+y,3/4+x'
   31   '3/4-y,3/4+x,1/4-z'
   32   '1/4-y,1/4+x,3/4-z'
   33   '3/4-x,3/4+z,1/4-y'
   34   '3/4-z,3/4+y,1/4-x'
   35   '1/4-x,1/4+z,3/4-y'
   36   '1/4-z,1/4+y,3/4-x'
   37   '3/4+y,1/4-x,3/4-z'
   38   '1/4+y,3/4-x,1/4-z'
   39   '3/4+x,1/4-z,3/4-y'
   40   '3/4+z,1/4-y,3/4-x'
   41   '1/4+x,3/4-z,1/4-y'
   42   '1/4+z,3/4-y,1/4-x'
   43   '1/4-y,3/4-x,3/4+z'
   44   '3/4-y,1/4-x,1/4+z'
   45   '1/4-x,3/4-z,3/4+y'
   46   '1/4-z,3/4-y,3/4+x'
   47   '3/4-x,1/4-z,1/4+y'
   48   '3/4-z,1/4-y,1/4+x'
loop_
_atom_site_label
_atom_site_type_symbol
_atom_site_fract_x
_atom_site_fract_y
_atom_site_fract_z

   Ta1   Ta   0.2500   0.3266(1)   0.0000
   Si1   Si   0.1392(5)   0.2662(5)   -0.0011(7)
   O1   O   0.1932(9)   0.2929(9)   -0.0022(15)
   C1   C   0.1444(27)   0.2120(21)   0.0455(20)
   C2   C   0.0918(27)   0.1859(23)   0.0457(19)
   C3   C   0.1766(22)   0.1832(22)   0.0293(23)
   C4   C   0.1546(24)   0.2362(22)   0.0965(21)
   C5   C   0.0947(21)   0.3217(21)   0.0125(23)
   C6   C   0.0855(25)   0.3503(21)   -0.0318(23)
   C7   C   0.0426(23)   0.2990(23)   0.0371(22)
   C8   C   0.1097(23)   0.3452(21)   0.0533(21)
   C9   C   0.1345(22)   0.2522(23)   -0.0707(20)
   C10   C   0.0893(22)   0.2265(23)   -0.0761(21)
   C11   C   0.1439(24)   0.2920(21)   -0.0989(21)
   C12   C   0.1685(21)   0.2076(20)   -0.0790(24)
   H1   H   0.0931   0.1565   0.0670
   H2   H   0.0669   0.2089   0.0585
   H3   H   0.0831   0.1760   0.0120
   H4   H   0.1810   0.1557   0.0526
   H5   H   0.1662   0.1702   -0.0029
   H6   H   0.2080   0.2009   0.0257
   H7   H   0.1541   0.2107   0.1223
   H8   H   0.1871   0.2523   0.0959
   H9   H   0.1290   0.2609   0.1035
   H10   H   0.0638   0.3782   -0.0239
   H11   H   0.1170   0.3628   -0.0449
   H12   H   0.0697   0.3292   -0.0567
   H13   H   0.0216   0.3264   0.0482
   H14   H   0.0250   0.2795   0.0122
   H15   H   0.0509   0.2779   0.0655
   H16   H   0.0847   0.3696   0.0630
   H17   H   0.1144   0.3212   0.0800
   H18   H   0.1411   0.3622   0.0466
   H19   H   0.0864   0.2140   -0.1100
   H20   H   0.0883   0.1986   -0.0528
   H21   H   0.0617   0.2489   -0.0691
   H22   H   0.1406   0.2830   -0.1339
   H23   H   0.1204   0.3184   -0.0909
   H24   H   0.1777   0.3036   -0.0926
   H25   H   0.1623   0.1937   -0.1120
   H26   H   0.2031   0.2182   -0.0767
   H27   H   0.1618   0.1824   -0.0539
   Ta1OA   Ta   0.2500   0.4234(1)   0.0000
   O1M   O   0.3068(9)   0.2929(9)   0.0022(15)
   O1OA   O   0.2478(15)   0.4571(9)   0.0568(9)
   O1SA   O   0.2522(15)   0.4571(9)   -0.0568(9)
   Si1M   Si   0.3608(5)   0.2662(5)   0.0011(7)
   Si1OA   Si   0.2489(7)   0.4838(5)   0.1108(5)
   Si1SA   Si   0.2511(7)   0.4838(5)   -0.1108(5)
   C1M   C   0.3556(27)   0.2120(21)   -0.0455(20)
   C5M   C   0.4053(21)   0.3217(21)   -0.0125(23)
   C9M   C   0.3655(22)   0.2522(23)   0.0707(20)
   C1OA   C   0.2955(20)   0.5380(21)   0.1056(27)
   C5OA   C   0.2625(23)   0.4283(21)   0.1553(21)
   C9OA   C   0.1793(20)   0.4978(23)   0.1155(22)
   C1SA   C   0.2045(20)   0.5380(21)   -0.1056(27)
   C5SA   C   0.2375(23)   0.4283(21)   -0.1553(21)
   C9SA   C   0.3207(20)   0.4978(23)   -0.1155(22)
   C2M   C   0.4082(27)   0.1859(23)   -0.0457(19)
   C3M   C   0.3234(22)   0.1832(22)   -0.0293(23)
   C4M   C   0.3454(24)   0.2362(22)   -0.0965(21)
   C6M   C   0.4145(25)   0.3503(21)   0.0318(23)
   C7M   C   0.4574(23)   0.2990(23)   -0.0371(22)
   C8M   C   0.3903(23)   0.3452(21)   -0.0533(21)
   C10M   C   0.4107(22)   0.2265(23)   0.0761(21)
   C11M   C   0.3561(24)   0.2920(21)   0.0989(21)
   C12M   C   0.3315(21)   0.2076(20)   0.0790(24)
   C2OA   C   0.2957(19)   0.5641(23)   0.1582(27)
   C3OA   C   0.2793(23)   0.5668(22)   0.0734(22)
   C4OA   C   0.3465(21)   0.5138(22)   0.0954(24)
   C6OA   C   0.2182(23)   0.3997(21)   0.1645(25)
   C7OA   C   0.2871(22)   0.4510(23)   0.2074(23)
   C8OA   C   0.3033(21)   0.4048(21)   0.1403(23)
   C10OA   C   0.1739(21)   0.5235(23)   0.1607(22)
   C11OA   C   0.1511(21)   0.4580(21)   0.1061(24)
   C12OA   C   0.1710(24)   0.5424(20)   0.0815(21)
   C2SA   C   0.2043(19)   0.5641(23)   -0.1582(27)
   C3SA   C   0.2207(23)   0.5668(22)   -0.0734(22)
   C4SA   C   0.1535(21)   0.5138(22)   -0.0954(24)
   C6SA   C   0.2818(23)   0.3997(21)   -0.1645(25)
   C7SA   C   0.2129(22)   0.4510(23)   -0.2074(23)
   C8SA   C   0.1967(21)   0.4048(21)   -0.1403(23)
   C10SA   C   0.3261(21)   0.5235(23)   -0.1607(22)
   C11SA   C   0.3489(21)   0.4580(21)   -0.1061(24)
   C12SA   C   0.3290(24)   0.5424(20)   -0.0815(21)
   H1M   H   0.4069   0.1565   -0.0670
   H2M   H   0.4331   0.2089   -0.0585
   H3M   H   0.4169   0.1760   -0.0120
   H4M   H   0.3190   0.1557   -0.0526
   H5M   H   0.3338   0.1702   0.0029
   H6M   H   0.2920   0.2009   -0.0257
   H7M   H   0.3459   0.2107   -0.1223
   H8M   H   0.3129   0.2523   -0.0959
   H9M   H   0.3710   0.2609   -0.1035
   H10M   H   0.4362   0.3782   0.0239
   H11M   H   0.3830   0.3628   0.0449
   H12M   H   0.4303   0.3292   0.0567
   H13M   H   0.4784   0.3264   -0.0482
   H14M   H   0.4750   0.2795   -0.0122
   H15M   H   0.4491   0.2779   -0.0655
   H16M   H   0.4153   0.3696   -0.0630
   H17M   H   0.3856   0.3212   -0.0800
   H18M   H   0.3589   0.3622   -0.0466
   H19M   H   0.4136   0.2140   0.1100
   H20M   H   0.4117   0.1986   0.0528
   H21M   H   0.4383   0.2489   0.0691
   H22M   H   0.3594   0.2830   0.1339
   H23M   H   0.3796   0.3184   0.0909
   H24M   H   0.3223   0.3036   0.0926
   H25M   H   0.3377   0.1937   0.1120
   H26M   H   0.2969   0.2182   0.0767
   H27M   H   0.3382   0.1824   0.0539
   H1OA   H   0.3170   0.5935   0.1569
   H2OA   H   0.3085   0.5411   0.1831
   H3OA   H   0.2620   0.5740   0.1669
   H4OA   H   0.3026   0.5943   0.0690
   H5OA   H   0.2471   0.5798   0.0838
   H6OA   H   0.2757   0.5491   0.0420
   H7OA   H   0.3723   0.5393   0.0959
   H8OA   H   0.3459   0.4977   0.0629
   H9OA   H   0.3535   0.4891   0.1210
   H10OA   H   0.2261   0.3718   0.1862
   H11OA   H   0.2051   0.3872   0.1330
   H12OA   H   0.1933   0.4208   0.1803
   H13OA   H   0.2982   0.4236   0.2284
   H14OA   H   0.2622   0.4705   0.2250
   H15OA   H   0.3155   0.4721   0.1991
   H16OA   H   0.3130   0.3804   0.1653
   H17OA   H   0.3300   0.4288   0.1356
   H18OA   H   0.2966   0.3878   0.1089
   H19OA   H   0.1400   0.5360   0.1636
   H20OA   H   0.1972   0.5514   0.1617
   H21OA   H   0.1809   0.5011   0.1883
   H22OA   H   0.1161   0.4670   0.1094
   H23OA   H   0.1591   0.4316   0.1296
   H24OA   H   0.1574   0.4464   0.0723
   H25OA   H   0.1380   0.5563   0.0877
   H26OA   H   0.1733   0.5318   0.0469
   H27OA   H   0.1961   0.5676   0.0882
   H1SA   H   0.1830   0.5935   -0.1569
   H2SA   H   0.1915   0.5411   -0.1831
   H3SA   H   0.2380   0.5740   -0.1669
   H4SA   H   0.1974   0.5943   -0.0690
   H5SA   H   0.2529   0.5798   -0.0838
   H6SA   H   0.2243   0.5491   -0.0420
   H7SA   H   0.1277   0.5393   -0.0959
   H8SA   H   0.1541   0.4977   -0.0629
   H9SA   H   0.1465   0.4891   -0.1210
   H10SA   H   0.2739   0.3718   -0.1862
   H11SA   H   0.2949   0.3872   -0.1330
   H12SA   H   0.3067   0.4208   -0.1803
   H13SA   H   0.2018   0.4236   -0.2284
   H14SA   H   0.2378   0.4705   -0.2250
   H15SA   H   0.1845   0.4721   -0.1991
   H16SA   H   0.1870   0.3804   -0.1653
   H17SA   H   0.1700   0.4288   -0.1356
   H18SA   H   0.2034   0.3878   -0.1089
   H19SA   H   0.3600   0.5360   -0.1636
   H20SA   H   0.3028   0.5514   -0.1617
   H21SA   H   0.3191   0.5011   -0.1883
   H22SA   H   0.3839   0.4670   -0.1094
   H23SA   H   0.3409   0.4316   -0.1296
   H24SA   H   0.3426   0.4464   -0.0723
   H25SA   H   0.3620   0.5563   -0.0877
   H26SA   H   0.3267   0.5318   -0.0469
   H27SA   H   0.3039   0.5676   -0.0882
loop_
_geom_bond_atom_site_label_1
_geom_bond_atom_site_label_2
_geom_bond_site_symmetry_1
_geom_bond_site_symmetry_2

   Ta1   O1   1_555   1_555
   Si1   O1   1_555   1_555
   C1   Si1   1_555   1_555
   C2   C1   1_555   1_555
   C3   C1   1_555   1_555
   C4   C1   1_555   1_555
   C5   Si1   1_555   1_555
   C6   C5   1_555   1_555
   C7   C5   1_555   1_555
   C8   C5   1_555   1_555
   C9   Si1   1_555   1_555
   C10   C9   1_555   1_555
   C11   C9   1_555   1_555
   C12   C9   1_555   1_555
   H1   C2   1_555   1_555
   H2   C2   1_555   1_555
   H3   C2   1_555   1_555
   H4   C3   1_555   1_555
   H5   C3   1_555   1_555
   H6   C3   1_555   1_555
   H7   C4   1_555   1_555
   H8   C4   1_555   1_555
   H9   C4   1_555   1_555
   H10   C6   1_555   1_555
   H11   C6   1_555   1_555
   H12   C6   1_555   1_555
   H13   C7   1_555   1_555
   H14   C7   1_555   1_555
   H15   C7   1_555   1_555
   H16   C8   1_555   1_555
   H17   C8   1_555   1_555
   H18   C8   1_555   1_555
   H19   C10   1_555   1_555
   H20   C10   1_555   1_555
   H21   C10   1_555   1_555
   H22   C11   1_555   1_555
   H23   C11   1_555   1_555
   H24   C11   1_555   1_555
   H25   C12   1_555   1_555
   H26   C12   1_555   1_555
   H27   C12   1_555   1_555
   Ta1OA   Ta1   1_555   1_555
   O1M   Ta1   1_555   1_555
   O1OA   Ta1OA   1_555   1_555
   O1SA   Ta1OA   1_555   1_555
   Si1M   O1M   1_555   1_555
   Si1OA   O1OA   1_555   1_555
   Si1SA   O1SA   1_555   1_555
   C1M   Si1M   1_555   1_555
   C5M   Si1M   1_555   1_555
   C9M   Si1M   1_555   1_555
   C1OA   Si1OA   1_555   1_555
   C5OA   Si1OA   1_555   1_555
   C9OA   Si1OA   1_555   1_555
   C1SA   Si1SA   1_555   1_555
   C5SA   Si1SA   1_555   1_555
   C9SA   Si1SA   1_555   1_555
   C2M   C1M   1_555   1_555
   C3M   C1M   1_555   1_555
   C4M   C1M   1_555   1_555
   C6M   C5M   1_555   1_555
   C7M   C5M   1_555   1_555
   C8M   C5M   1_555   1_555
   C10M   C9M   1_555   1_555
   C11M   C9M   1_555   1_555
   C12M   C9M   1_555   1_555
   C2OA   C1OA   1_555   1_555
   C3OA   C1OA   1_555   1_555
   C4OA   C1OA   1_555   1_555
   C6OA   C5OA   1_555   1_555
   C7OA   C5OA   1_555   1_555
   C8OA   C5OA   1_555   1_555
   C10OA   C9OA   1_555   1_555
   C11OA   C9OA   1_555   1_555
   C12OA   C9OA   1_555   1_555
   C2SA   C1SA   1_555   1_555
   C3SA   C1SA   1_555   1_555
   C4SA   C1SA   1_555   1_555
   C6SA   C5SA   1_555   1_555
   C7SA   C5SA   1_555   1_555
   C8SA   C5SA   1_555   1_555
   C10SA   C9SA   1_555   1_555
   C11SA   C9SA   1_555   1_555
   C12SA   C9SA   1_555   1_555
   H1M   C2M   1_555   1_555
   H2M   C2M   1_555   1_555
   H3M   C2M   1_555   1_555
   H4M   C3M   1_555   1_555
   H5M   C3M   1_555   1_555
   H6M   C3M   1_555   1_555
   H7M   C4M   1_555   1_555
   H8M   C4M   1_555   1_555
   H9M   C4M   1_555   1_555
   H10M   C6M   1_555   1_555
   H11M   C6M   1_555   1_555
   H12M   C6M   1_555   1_555
   H13M   C7M   1_555   1_555
   H14M   C7M   1_555   1_555
   H15M   C7M   1_555   1_555
   H16M   C8M   1_555   1_555
   H17M   C8M   1_555   1_555
   H18M   C8M   1_555   1_555
   H19M   C10M   1_555   1_555
   H20M   C10M   1_555   1_555
   H21M   C10M   1_555   1_555
   H22M   C11M   1_555   1_555
   H23M   C11M   1_555   1_555
   H24M   C11M   1_555   1_555
   H25M   C12M   1_555   1_555
   H26M   C12M   1_555   1_555
   H27M   C12M   1_555   1_555
   H1OA   C2OA   1_555   1_555
   H2OA   C2OA   1_555   1_555
   H3OA   C2OA   1_555   1_555
   H4OA   C3OA   1_555   1_555
   H5OA   C3OA   1_555   1_555
   H6OA   C3OA   1_555   1_555
   H7OA   C4OA   1_555   1_555
   H8OA   C4OA   1_555   1_555
   H9OA   C4OA   1_555   1_555
   H10OA   C6OA   1_555   1_555
   H11OA   C6OA   1_555   1_555
   H12OA   C6OA   1_555   1_555
   H13OA   C7OA   1_555   1_555
   H14OA   C7OA   1_555   1_555
   H15OA   C7OA   1_555   1_555
   H16OA   C8OA   1_555   1_555
   H17OA   C8OA   1_555   1_555
   H18OA   C8OA   1_555   1_555
   H19OA   C10OA   1_555   1_555
   H20OA   C10OA   1_555   1_555
   H21OA   C10OA   1_555   1_555
   H22OA   C11OA   1_555   1_555
   H23OA   C11OA   1_555   1_555
   H24OA   C11OA   1_555   1_555
   H25OA   C12OA   1_555   1_555
   H26OA   C12OA   1_555   1_555
   H27OA   C12OA   1_555   1_555
   H1SA   C2SA   1_555   1_555
   H2SA   C2SA   1_555   1_555
   H3SA   C2SA   1_555   1_555
   H4SA   C3SA   1_555   1_555
   H5SA   C3SA   1_555   1_555
   H6SA   C3SA   1_555   1_555
   H7SA   C4SA   1_555   1_555
   H8SA   C4SA   1_555   1_555
   H9SA   C4SA   1_555   1_555
   H10SA   C6SA   1_555   1_555
   H11SA   C6SA   1_555   1_555
   H12SA   C6SA   1_555   1_555
   H13SA   C7SA   1_555   1_555
   H14SA   C7SA   1_555   1_555
   H15SA   C7SA   1_555   1_555
   H16SA   C8SA   1_555   1_555
   H17SA   C8SA   1_555   1_555
   H18SA   C8SA   1_555   1_555
   H19SA   C10SA   1_555   1_555
   H20SA   C10SA   1_555   1_555
   H21SA   C10SA   1_555   1_555
   H22SA   C11SA   1_555   1_555
   H23SA   C11SA   1_555   1_555
   H24SA   C11SA   1_555   1_555
   H25SA   C12SA   1_555   1_555
   H26SA   C12SA   1_555   1_555
   H27SA   C12SA   1_555   1_555
