data_ZETFUZ

_audit_creation_date   1996-06-03
_database_code_NBS   657992
_database_code_CSD   ZETFUZ
_chemical_formula_moiety   'C72 H60 Cd8 Cl4 S13 2-,H12 Cd1 O6 2+'
_chemical_name_systematic
;
Hexa-aqua-cadmium (\m~4~-sulfido)-dodecakis(\m~2~-phenylthiolato)-tetrachloro-octa-cadmium
;
_journal_coden_Cambridge   603
_journal_volume   14
_journal_year   1995
_journal_page_first   399
_journal_name_full   'Jiegou Huaxue'
_chemical_absolute_configuration   unk
_diffrn_ambient_temperature   295
_exptl_crystal_density_diffrn   1.646
_refine_ls_R_factor_gt   0.0499
_refine_ls_wR_factor_gt   0.0499
_diffrn_radiation_probe   x-ray
_symmetry_cell_setting   cubic
_symmetry_space_group_name_H-M   'F -4 3 c'
_symmetry_Int_Tables_number   219
_space_group_name_Hall   'F -4a 2 3'
_cell_length_a   27.597(5)
_cell_length_b   27.597(5)
_cell_length_c   27.597(5)
_cell_angle_alpha   90
_cell_angle_beta   90
_cell_angle_gamma   90
_cell_volume   21017.7
_cell_formula_units_Z   8
loop_
_publ_author_name

   'Tang Ka-Luo'
   'Jin Xiang-Lin'
   'Jia Shao-Juan'
   'Tang You-Qi'
loop_
_symmetry_equiv_pos_site_id
_symmetry_equiv_pos_as_xyz

   1   x,y,z
   2   y,-x,1/2-z
   3   x,-y,-z
   4   z,x,y
   5   -x,-y,z
   6   -y,-x,1/2+z
   7   x,-z,1/2-y
   8   -y,x,1/2-z
   9   -x,y,-z
   10   -z,-x,y
   11   y,x,1/2+z
   12   -x,z,1/2-y
   13   z,-x,-y
   14   x,z,1/2+y
   15   -z,x,-y
   16   -x,-z,1/2+y
   17   y,z,x
   18   1/2+z,-y,-x
   19   1/2-z,-y,x
   20   y,-z,-x
   21   1/2+z,y,x
   22   -y,z,-x
   23   -y,-z,x
   24   1/2-z,y,-x
   25   'x,1/2+y,1/2+z'
   26   y,1/2-x,-z
   27   'x,1/2-y,1/2-z'
   28   'z,1/2+x,1/2+y'
   29   '-x,1/2-y,1/2+z'
   30   -y,1/2-x,z
   31   x,1/2-z,-y
   32   -y,1/2+x,-z
   33   '-x,1/2+y,1/2-z'
   34   '-z,1/2-x,1/2+y'
   35   y,1/2+x,z
   36   -x,1/2+z,-y
   37   'z,1/2-x,1/2-y'
   38   x,1/2+z,y
   39   '-z,1/2+x,1/2-y'
   40   -x,1/2-z,y
   41   'y,1/2+z,1/2+x'
   42   '1/2+z,1/2-y,1/2-x'
   43   '1/2-z,1/2-y,1/2+x'
   44   'y,1/2-z,1/2-x'
   45   '1/2+z,1/2+y,1/2+x'
   46   '-y,1/2+z,1/2-x'
   47   '-y,1/2-z,1/2+x'
   48   '1/2-z,1/2+y,1/2-x'
   49   '1/2+x,y,1/2+z'
   50   1/2+y,-x,-z
   51   '1/2+x,-y,1/2-z'
   52   '1/2+z,x,1/2+y'
   53   '1/2-x,-y,1/2+z'
   54   1/2-y,-x,z
   55   1/2+x,-z,-y
   56   1/2-y,x,-z
   57   '1/2-x,y,1/2-z'
   58   '1/2-z,-x,1/2+y'
   59   1/2+y,x,z
   60   1/2-x,z,-y
   61   '1/2+z,-x,1/2-y'
   62   1/2+x,z,y
   63   '1/2-z,x,1/2-y'
   64   1/2-x,-z,y
   65   '1/2+y,z,1/2+x'
   66   z,-y,1/2-x
   67   -z,-y,1/2+x
   68   '1/2+y,-z,1/2-x'
   69   z,y,1/2+x
   70   '1/2-y,z,1/2-x'
   71   '1/2-y,-z,1/2+x'
   72   -z,y,1/2-x
   73   '1/2+x,1/2+y,z'
   74   '1/2+y,1/2-x,1/2-z'
   75   '1/2+x,1/2-y,-z'
   76   '1/2+z,1/2+x,y'
   77   '1/2-x,1/2-y,z'
   78   '1/2-y,1/2-x,1/2+z'
   79   '1/2+x,1/2-z,1/2-y'
   80   '1/2-y,1/2+x,1/2-z'
   81   '1/2-x,1/2+y,-z'
   82   '1/2-z,1/2-x,y'
   83   '1/2+y,1/2+x,1/2+z'
   84   '1/2-x,1/2+z,1/2-y'
   85   '1/2+z,1/2-x,-y'
   86   '1/2+x,1/2+z,1/2+y'
   87   '1/2-z,1/2+x,-y'
   88   '1/2-x,1/2-z,1/2+y'
   89   '1/2+y,1/2+z,x'
   90   z,1/2-y,-x
   91   -z,1/2-y,x
   92   '1/2+y,1/2-z,-x'
   93   z,1/2+y,x
   94   '1/2-y,1/2+z,-x'
   95   '1/2-y,1/2-z,x'
   96   -z,1/2+y,-x
loop_
_atom_site_label
_atom_site_type_symbol
_atom_site_fract_x
_atom_site_fract_y
_atom_site_fract_z

   Cd1   Cd   0 0 0